Te Mo 
 1.0000000000000000
    10.5065478842430764    0.0000000000000000    0.0000000000000000
    -5.0076438804413419    9.0848385063086319    0.0000000000000000
     0.8538419136519804   -0.2941408587442275   29.9572250480185573
 Te  Mo 
  36  18
Cartesian
  0.3221771234043425  1.9297047459465733  9.3666093671675732
 -1.3469891228872255  4.9522603110991286  9.3706257772361319
 -3.0165970840389016  7.9833278132193897  9.3700271039520633
  3.8230746247557361  1.9252473427565790  9.3767939501872739
  2.1599397324640282  4.9492902917792296  9.3639892592495890
  0.4868353469912439  7.9841485223053477  9.3735680269769137
  7.3299964582977166  1.9342273479253531  9.3710016675310026
  5.6586226403037543  4.9543619484993426  9.3702040710581649
  3.9878549704204191  7.9847426061729214  9.3687499519677768
  0.2654026731735434  2.3575426180022014 16.9694046141310544
 -1.4082817755582544  5.3807811998309001 16.9593905783302290
 -3.0795220367797316  8.4125219690739286 16.9662427465139451
  3.7660639636356983  2.3580593401434249 16.9696874348591606
  2.0856831204429023  5.3794113525580585 16.9676098419390904
  0.4216577430262376  8.4086513641204217 16.9688307132099396
  7.2612780677852280  2.3585527156435053 16.9674618768220213
  5.5952252591204035  5.3855185436126787 16.9667581334998552
  3.9223309626147209  8.4220122404526787 16.9645496481507969
  0.4206921215440031  1.8874556508631219 12.9942710744118735
 -1.2443556907026887  4.9209689178217113 12.9908712091963832
 -2.9077437098364221  7.9518407766374644 12.9858629052984647
  3.9269145839575743  1.8911160797767221 12.9917529368424809
  2.2579074885359955  4.9195308890124680 12.9918961234908661
  0.5834217764279582  7.9520450057765455 12.9917217067878088
  7.4305213597804762  1.8931726660018657 12.9935242199235628
  5.7604001396286959  4.9189361901747253 12.9925608591153612
  4.0926524500086874  7.9474285351781715 12.9916805497333474
  0.3609980606878865  2.3273147767442666 20.5861678406375681
 -1.3098242815520946  5.3449067828197814 20.5835740414591761
 -2.9727258961814358  8.3740158815588881 20.5838310086775671
  3.8662340239231332  2.3215250799421896 20.5857983464737480
  2.1982905353914619  5.3553578585680972 20.5837072673171768
  0.5314498870843964  8.3774189295311849 20.5939614343160358
  7.3740497531280482  2.3197109440601440 20.5870368425983763
  5.6980735919652448  5.3453485880490810 20.5806070609564635
  4.0288935624430033  8.3782890255137339 20.5872529706017247
  0.3145046907929110 -0.1012368843482443 11.1832094353915910
 -1.3464350030302885  2.9146692604505171 11.1841680309747051
 -3.0179425648511411  5.9461704713228674 11.1782442855909743
  3.8192330605948372 -0.1085674196942025 11.1792927738473757
  2.1445155957639415  2.9173915879052426 11.1833348716315193
  0.4800544867275843  5.9491662535533854 11.1781587842716643
  7.3187918944035708 -0.1042315082998361 11.1811224742017981
  5.6558060787208353  2.9197313632496562 11.1817165913056140
  3.9843965693916030  5.9458954830712889 11.1808903875720453
  0.2588480326176176  0.3171376171470829 18.7782937281453890
 -1.4182839465584594  3.3540202513633557 18.7767530669183387
 -3.0774986982219903  6.3786962309339472 18.7810085653045178
  3.7594418124081632  0.3203592142001090 18.7766685447132886
  2.0920862992181317  3.3490524266318813 18.7746454417081488
  0.4217616071636227  6.3778930496054977 18.7766407967935969
  7.2578611209429322  0.3289373076990225 18.7768098583491359
  5.5878678233959738  3.3439725788711003 18.7752659102222665
  3.9281338454861974  6.3798998827678854 18.7825385591995335
