Te Mo 
 1.0000000000000000
    10.5077396338602753    0.0000000000000000    0.0000000000000000
    -5.4697354318268943    9.2542106022763555    0.0000000000000000
     0.6297181293378883    0.3510226291824579   29.2054187294087626
 Te  Mo 
  36  18
Cartesian
  2.1538101325421048  1.2673349448910614 19.7846882967261131
  0.3300662011577317  4.3579797808733662 19.7821538469735678
 -1.4957025977213416  7.4364666696257817 19.7818838637616210
  5.6574464343010602  1.2624463602411513 19.7784734045219643
  3.8308042141204375  4.3462166060268057 19.7828101918055843
  2.0116472609467104  7.4385307103413991 19.7896369510638408
  9.1599043519618206  1.2688225677640841 19.7818409122546761
  7.3277039617807684  4.3526069502052493 19.7797144368807274
  5.5137818963067078  7.4355233391691797 19.7893495075052641
  0.2799269630412062  0.1554564979392300 12.9479738153849215
 -1.5470985458782669  3.2416747827931975 12.9422405667880192
 -3.3649770054831580  6.3204135935764372 12.9449103540894974
  3.7879525146115500  0.1547169616726644 12.9455897456689790
  1.9602032236701155  3.2412188156844794 12.9515365453365305
  0.1300304582166179  6.3292869192415750 12.9418041278216691
  7.2849844262287515  0.1555777880783083 12.9497076083828180
  5.4587679206554878  3.2378757519060923 12.9472775036203167
  3.6322416483493112  6.3243492157683390 12.9457174984355188
  2.0826901460833023  1.2200153727610297 16.2596586954242674
  0.2518591403953595  4.3007966239742101 16.2607424896060380
 -1.5670755979585984  7.3942493101458577 16.2574797267812379
  5.5808341687320624  1.2181406258569976 16.2593926085065341
  3.7574230424963804  4.3058980402939344 16.2553614850581631
  1.9322201443694413  7.3891618684190563 16.2575674456035628
  9.0809004127379431  1.2184902787766594 16.2544650529731740
  7.2606352674315273  4.3083800700867521 16.2527784282960255
  5.4348779369222076  7.3840052529857561 16.2551278129296968
  0.2005332347038098  0.1120772381522435  9.4164183103812480
 -1.6176203729963128  3.1943647856302757  9.4208712198916604
 -3.4433009584867733  6.2834394594963907  9.4205175829217005
  3.7052972457263968  0.1130220884490699  9.4195572980611022
  1.8816612534760182  3.1921909357822584  9.4251857574644422
  0.0584436421173788  6.2822460769260173  9.4206169488536453
  7.2096976402399262  0.1131085428679382  9.4180623769109104
  5.3843224459021197  3.1978535196857130  9.4207307045580748
  3.5613365280590372  6.2784758132282610  9.4250049620859766
  0.3870690375515192  0.2212509872701025 18.0286368842380469
 -1.4298811667524407  3.3026916420574999 18.0179313125790443
 -3.2551063605732264  6.3880091318538845 18.0301562234793344
  3.8909995919355844  0.2164442904908295 18.0214917946239659
  2.0633882204424769  3.3043619017892807 18.0186538594839298
  0.2518697747664880  6.3821501242535010 18.0220006211592221
  7.3967336688896577  0.2107803116879716 18.0141553582107932
  5.5701977519909232  3.3015462074210697 18.0236583326356055
  3.7445188237935523  6.3945681044342715 18.0211894910703592
  0.1943194508656623  2.1898028155360016 11.1800974368915558
 -1.6293558782802158  5.2793843185662528 11.1902452242802664
 -3.4522682825131179  8.3611565617404260 11.1877158884341767
  3.6961541851659270  2.1946978094157625 11.1876772003326668
  1.8747559238449161  5.2696588152371131 11.1907571421996916
  0.0453389398667219  8.3613570012127116 11.1895705716339950
  7.2006438309081089  2.1894192034123252 11.1851146236816046
  5.3733410356093767  5.2761976528508345 11.1838651172528944
  3.5554993594778277  8.3688244247122938 11.1819669630192084
