Te Mo 
 1.0000000000000000
    10.4618774568650608    0.0000000000000000    0.0000000000000000
    -5.2602539749833319    8.9081348724736991    0.0000000000000000
    -0.4431492982128201   -0.7668162106895460   30.3264109947874054
 Te  Mo 
  36  18
Cartesian
  1.4386454295240394  0.4591860048709486 20.7023285457033097
 -0.3182326921260099  3.4331257770511807 20.7078902682303116
 -2.0690184698050675  6.4054477715512395 20.7060944395482274
  4.9311338944288394  0.4670097621085355 20.7019428427178802
  3.1672149536220355  3.4397396179798196 20.7108331792723881
  1.4142643624539137  6.4066105660435655 20.7038881580146104
  8.4118704304407661  0.4690288869395681 20.7062258497692859
  6.6602403660262190  3.4373309567957797 20.7044836089233968
  4.9073021333033600  6.4054393746413920 20.7078094173280292
 -0.7731321778721186  0.6504178319785234 13.2867846514332282
 -2.5345919776528807  3.6240179101500409 13.2842328986059943
 -4.2858198735447370  6.5926770944275157 13.2858319471671908
  2.7087329119148076  0.6535331003545074 13.2866104046932794
  0.9600589415971393  3.6246317414412221 13.2854916109928176
 -0.7970932768496516  6.5920156498807847 13.2871988922911513
  6.1899082734654352  0.6476456894761724 13.2907662851878499
  4.4388986439368470  3.6259924778742301 13.2898492253373064
  2.6904571449703658  6.5915164927088128 13.2873665520408615
  1.4940722623199438  0.5548756640170389 17.0443058345891529
 -0.2624410488177987  3.5305664577607949 17.0442218002117656
 -2.0202576266843768  6.4948980726807743 17.0385724500350264
  4.9716177814939329  0.5593586188863173 17.0408453613453332
  3.2225343318391571  3.5217879949908348 17.0467272626623974
  1.4695954051881825  6.4939990481371437 17.0369802260468717
  8.4663313240973217  0.5596961956984547 17.0392892914260514
  6.7054833194235393  3.5265371967058390 17.0433868528855292
  4.9634658383133159  6.4973650125015299 17.0461113653192307
 -0.7216404789426352  0.7448613146305639  9.6272318829499230
 -2.4789818405240696  3.7159211489884196  9.6203460948148702
 -4.2361863461809639  6.6870148149164237  9.6155112805727558
  2.7618351340630030  0.7469860942142796  9.6193842148068622
  1.0079082686580558  3.7153806316220046  9.6159078564918214
 -0.7467874722178597  6.6948513118304502  9.6180700461056539
  6.2480631887016678  0.7449026902835328  9.6195702547429338
  4.4954059285268579  3.7198640289222120  9.6225776765509927
  2.7431284732785701  6.6887454555621373  9.6133832501690790
 -0.2761589508242314 -0.4767059655838841 18.8734525240333149
 -2.0379938116099243  2.4896482078973423 18.8719965549967732
 -3.7821259785241264  5.4610396993131154 18.8742531542510292
  3.2090419917304964 -0.4774262259512922 18.8742190596617370
  1.4641423357489873  2.4893242903062691 18.8720750286106629
 -0.2948658212023028  5.4609715256319964 18.8711878708522853
  6.7079193023682890 -0.4745418066714998 18.8706190916612790
  4.9463740974787846  2.4918383562678255 18.8750592895239357
  3.1905879739923888  5.4544080407010327 18.8701721393699202
  0.9973277596342297 -0.2946118402780079 11.4571791050268228
 -0.7532005985850962  2.6785733642571725 11.4471828436990108
 -2.5089078761049692  5.6551612739441088 11.4494494315760331
  4.4815960398839945 -0.2892938801524155 11.4464825616238599
  2.7323624730045695  2.6785079804694605 11.4516980431651820
  0.9765553189345855  5.6475389919504257 11.4517262700276437
  7.9702672028115717 -0.2893239249192360 11.4530324634759868
  6.2155240422325875  2.6787442809078441 11.4535600525109373
  4.4719002546625228  5.6471402112582849 11.4505193375465826
