Te Mo 
 1.0000000000000000
    10.5174718984822579    0.0000000000000000    0.0000000000000000
    -5.1725311862753829    8.9691698846875649    0.0000000000000000
    -0.4776555683121664    0.7603542558938380   29.5174635637926102
 Te  Mo 
  36  18
Cartesian
 -0.1266017713379484  2.2409474169967107  9.4610130820298028
 -1.8533275327263257  5.2302952032394732  9.4630151536823668
 -3.5800016769845562  8.2183553804873171  9.4641345289136414
  3.3717946807750119  2.2370476713007355  9.4655223666401671
  1.6487113301126224  5.2261367704457253  9.4650324765703271
 -0.0681054782229691  8.2155135575351981  9.4676121328471048
  6.8769813045204042  2.2384642168570399  9.4625784415055954
  5.1509579082421997  5.2175894633371964  9.4645533176466294
  3.4283975036687608  8.2179495594451044  9.4605198541075008
 -0.5541911637339513  0.9226616608987765 16.4850331536967722
 -2.2738493275358831  3.9158555199055929 16.4820058864792784
 -4.0047752250321667  6.9064796278034146 16.4888143280584991
  2.9492217187696812  0.9294864416007534 16.4865615824087932
  1.2302392750228472  3.9132206900570736 16.4831795711363327
 -0.4978109048712847  6.9015268257527262 16.4837900104718500
  6.4639432100334071  0.9188361836018224 16.4857774278427129
  4.7363351985734861  3.9150430210857090 16.4826775605186775
  3.0125275441418879  6.9023902115224560 16.4846374509819569
 -0.1955058736129556  2.3281566392037800 13.0355136609492916
 -1.9156132640505763  5.3199728471162233 13.0372523556112991
 -3.6411735167442747  8.3079073467083102 13.0329503956400270
  3.3149185318442513  2.3282211246498554 13.0318299161859379
  1.5882358083857520  5.3175665092432478 13.0333066517048586
 -0.1337060384795691  8.3078910981506606 13.0335869361708525
  6.8149614575025765  2.3262846448110248 13.0385669519222969
  5.1009801404533075  5.3173803613145960 13.0294253997040208
  3.3699794164543788  8.3107814937876405 13.0341207444433742
 -0.6118842330313444  1.0146365447294159 20.0522990720838905
 -2.3302881532790174  4.0046169559357647 20.0559074308566601
 -4.0555546099714981  6.9969992332019384 20.0577401997503664
  2.8934321086693910  1.0159199729916708 20.0538529815708557
  1.1675669303192246  3.9983649870037086 20.0525860338083746
 -0.5502159629977611  6.9975599427243900 20.0515286348655195
  6.4029563099525175  1.0091185774911369 20.0582143157927284
  4.6752356425119821  4.0096518531257752 20.0604742536774232
  2.9506215434200573  6.9956755579245211 20.0502330940704567
 -0.1818509383305076  0.2891916211121991 11.2483143083979389
 -1.9027201658653259  3.2811579571638103 11.2458891600337090
 -3.6285426156819471  6.2684401639201903 11.2536196494220579
  3.3269475002613889  0.2866542775842277 11.2476816016127987
  1.6026017958557783  3.2824453203206914 11.2499194048325286
 -0.1226605939708625  6.2706759446150588 11.2491237920044487
  6.8228963255424926  0.2883388155184671 11.2443941241555621
  5.1050547688828978  3.2820767582503514 11.2469379934592126
  3.3849980875271788  6.2693651372504178 11.2536751681194787
  1.1770472212846996  1.9622785361814719 18.2668992752243327
 -0.5435685304429153  4.9505956005835765 18.2625717322051422
 -2.2687741437596824  7.9449216719955755 18.2682040702582889
  4.6848333442092933  1.9646209937561494 18.2690877660965043
  2.9575413742516159  4.9530572503853314 18.2723257039405311
  1.2378049023751128  7.9432622346829005 18.2646092219207041
  8.1957915604801705  1.9574814942464394 18.2680421745595787
  6.4712396694378560  4.9512270857605669 18.2634160894549282
  4.7396902371525771  7.9442994876557149 18.2715607581392199
