Te Mo 
 1.0000000000000000
    10.3619015586915619    0.0000000000000000    0.0000000000000000
    -5.2730491793491527    9.3827962741587392    0.0000000000000000
     0.6048478129352252    0.4237801348572203   30.3157497183784415
 Te  Mo 
  36  18
Cartesian
  0.1707636805974154  2.2215255443324176  9.7197269797487635
 -1.5805508787794902  5.3461684264985720  9.7266591017645077
 -3.3423889787085659  8.4675738636005669  9.7169083933782545
  3.6250387417390133  2.2220375987741794  9.7211154531758108
  1.8660261873774135  5.3427143408181479  9.7187988364650835
  0.1125937708077016  8.4762845687833241  9.7201801724672521
  7.0837799565402211  2.2164550831694134  9.7138900118551543
  5.3240402857200255  5.3483617843072340  9.7265234280300170
  3.5641111914276618  8.4766382272815068  9.7211145998754684
  1.7585217528738659  1.8018079283511812 16.9314374521999262
  0.0026153859129150  4.9272820135625608 16.9284035334478702
 -1.7557691285860468  8.0547154819147657 16.9307763905665745
  5.2171653497492532  1.8049290463543102 16.9328845476600023
  3.4609964989550592  4.9316627619867903 16.9274169764179199
  1.7004577747889416  8.0558465375911545 16.9292443010495930
  8.6732745036748149  1.8062849746003971 16.9270400935651146
  6.9114764753162481  4.9285404863472424 16.9298715287961947
  5.1525092107579438  8.0547045221340809 16.9309297938935295
  0.2429901791340247  2.2727593255772596 13.3860890398908801
 -1.5109395294733063  5.4000900038897877 13.3857117973423758
 -3.2725557411185004  8.5259498818453849 13.3889849460974695
  3.7009960391722903  2.2718898718528906 13.3842204937391909
  1.9432603265214534  5.4023363530253281 13.3795568706411068
  0.1863354939535709  8.5255340268697175 13.3905911362795731
  7.1607924859334986  2.2664869985233809 13.3894192258413138
  5.3983844188278436  5.3949170175478516 13.3878346281894842
  3.6399459026601773  8.5211594575185678 13.3832923278874176
  1.8337183791626002  1.8586393150637806 20.5891768504014898
  0.0709442687342322  4.9732781914727333 20.5903107627373458
 -1.6851867827973896  8.1073775227681288 20.5956684554985294
  5.2912729921062800  1.8487242107537987 20.5963942315376265
  3.5315347839330955  4.9779626584904131 20.5938358335053522
  1.7778159341815611  8.1122068777069103 20.5914994700472249
  8.7429685345091439  1.8578540847931166 20.5935845581677697
  6.9876578930374702  4.9829499144212397 20.5909705480354184
  5.2268044439675130  8.1049531523988758 20.5968310145809781
  0.2324270111909349  0.1646427857013333 11.5573490847406877
 -1.5256066660894392  3.2859684955320647 11.5545781282969919
 -3.2831854387735575  6.4229378058758648 11.5579747881581785
  3.6810027782193018  0.1653884313942188 11.5515445108166475
  1.9312803278009605  3.2940693472351947 11.5526310605336811
  0.1711744636827383  6.4186897414836981 11.5530593622725171
  7.1409472713483737  0.1611026682421545 11.5561102443942652
  5.3871310456935992  3.2850156356606224 11.5502191124158227
  3.6273953583436369  6.4221193192291857 11.5474201952354072
  0.0587227772241183  2.8614135692792084 18.7660512184517110
 -1.7002222869855821  5.9979595792093487 18.7663719564038516
 -3.4548814478605872  9.1215684132336481 18.7610574793500184
  3.5119917518226473  2.8639390364331780 18.7609574833031978
  1.7600756350993594  5.9973237373574317 18.7652049669963219
 -0.0046072652909238  9.1201528997095966 18.7611304223501385
  6.9722846777842191  2.8666287610777874 18.7646795719762203
  5.2102161707823793  5.9945859719888919 18.7628625567267662
  3.4555950188909699  9.1272856703450209 18.7666683224089930
