Te Mo 
 1.0000000000000000
    10.6212284508132804    0.0000000000000000    0.0000000000000000
    -5.2023842130333886    9.0712123803600306    0.0000000000000000
     0.8048777577103114   -0.2101309251511916   29.5463794790477330
 Te  Mo 
  36  18
Cartesian
  0.2830098215661939  1.9478199474000415  9.4769032260277761
 -1.4494111215681087  4.9763353715986547  9.4685132793193976
 -3.1885032465235592  7.9946593265611599  9.4780766841940078
  3.8257879289152115  1.9478235014179022  9.4783915147651552
  2.0906536995369880  4.9728358909752579  9.4738320688986342
  0.3538711373646728  8.0041484990096112  9.4770085168080165
  7.3565934312622225  1.9477819214899681  9.4739883297938121
  5.6267725518269955  4.9711647991889407  9.4802989873560932
  3.8986178361775554  7.9948095952798131  9.4788546143991770
  2.5448214654339303  2.4024831920549365 16.5001027958944881
  0.8118667607490991  5.4282004403905466 16.5014860543826742
 -0.9246377476775974  8.4509073569736390 16.4984812924441719
  6.0862429985050195  2.4055161897336701 16.5063733747655874
  4.3526372981046002  5.4232003182155877 16.4967639777614856
  2.6143710773536024  8.4554123356019772 16.5002397551071489
  9.6321254524146820  2.4019556007027671 16.5045558899902787
  7.8894779087333839  5.4253054123863729 16.4985731958039672
  6.1573075635272536  8.4507250750443195 16.5013806229023068
  0.3824355818389572  1.9263547588891008 13.0436343317900540
 -1.3593324077336233  4.9528308191748689 13.0526465962165190
 -3.0904381241314915  7.9707232372264816 13.0482238853081256
  3.9179257351224535  1.9206743363029590 13.0467140587978907
  2.1872999697483211  4.9476797890729802 13.0469871168673563
  0.4510504974057002  7.9706442774768789 13.0463213148083028
  7.4595222988985270  1.9297890776297013 13.0496036311605792
  5.7315721583310744  4.9394327461118257 13.0469551156294727
  3.9959212064095868  7.9784688868212656 13.0480907625911939
  2.6408452273870453  2.3786485225480107 20.0703290103285461
  0.9089612001222571  5.4029646784519612 20.0687071623110214
 -0.8256777562765278  8.4255611837647066 20.0718228251615329
  6.1845402150187807  2.3738772963326844 20.0675515358636218
  4.4460122000322340  5.4003423935256665 20.0687675423307326
  2.7157084736804529  8.4208683604200978 20.0776646314079379
  9.7188510742631706  2.3760625466143264 20.0644576908246961
  7.9919654728908762  5.4061225301819169 20.0753279727607072
  6.2584461269621006  8.4300862571136150 20.0709456278407536
  0.3120405941476110 -0.0787957079650980 11.2588115079881561
 -1.4289221899132838  2.9416685318158229 11.2607262996235793
 -3.1570457143864448  5.9608238316039026 11.2576186934577631
  3.8492548225245566 -0.0794226431763190 11.2632909695384562
  2.1106041441085419  2.9407761719336776 11.2599243119294687
  0.3744891681227024  5.9744710223786566 11.2603375006312216
  7.3899368688577329 -0.0766434276995956 11.2685525961928956
  5.6474002708908184  2.9487819769043737 11.2579582080115426
  3.9175670557786466  5.9659719528909729 11.2597094298437650
  2.5746638614053432  0.3800289624745131 18.2863964862779298
  0.8350728180954228  3.3942841884200186 18.2873056177786850
 -0.9000644638462697  6.4239445708140082 18.2870281260568497
  6.1127344279273128  0.3812967462567761 18.2836833560431060
  4.3810156586806581  3.4040397212209985 18.2887058082994898
  2.6387555948965766  6.4158767936822940 18.2854682695372439
  9.6464202681832916  0.3745187478001991 18.2875703620258996
  7.9182296059998514  3.3983959625531797 18.2869120989910172
  6.1834034192007730  6.4252874538710429 18.2848196849150852
