Te Mo 
 1.0000000000000000
    10.3317915429405165    0.0000000000000000    0.0000000000000000
    -5.2393395187076983    9.3003248531422695    0.0000000000000000
    -0.0046602547494237    0.3077657259290179   30.5019900351182827
 Te  Mo 
  36  18
Cartesian
 -0.0186621747785514  2.1651597161025817  9.7789210982502226
 -1.7577770258285699  5.2674010545951022  9.7828614309800805
 -3.5141681617359546  8.3715448015612406  9.7810076555994403
  3.4194673781001961  2.1626918298041686  9.7836652770945953
  1.6862697763325090  5.2599801420516163  9.7841644009764117
 -0.0623158938835251  8.3629948333969537  9.7823848946755341
  6.8776624573467791  2.1654205223819187  9.7748758994095013
  5.1276534164431293  5.2663374591069640  9.7806731680178540
  3.3758617613883399  8.3696085041865462  9.7774326675391539
  1.4229092504368852  1.7218262128835473 17.0297593675697350
 -0.3283915487771841  4.8183349450342776 17.0368453093965577
 -2.0742851009902279  7.9168274710398086 17.0402155569475653
  4.8627473473777210  1.7221254400763868 17.0329766209913380
  3.1182340094076664  4.8224168703988504 17.0336077943216075
  1.3701085253738470  7.9215402196692359 17.0361284719172232
  8.3094195943913345  1.7243829159534927 17.0319877029874931
  6.5621644084606983  4.8250461627503043 17.0319163804417926
  4.8163219032860649  7.9212287146466096 17.0338850931828709
 -0.0169727899270573  2.2059625530765286 13.4694680559477966
 -1.7651537788854417  5.3048923467353157 13.4670476215207415
 -3.5100350968958018  8.4056041615256092 13.4643052770411167
  3.4243721906777238  2.1990444144605545 13.4644043223493899
  1.6789230699251070  5.3022829883151603 13.4681394376148447
 -0.0680200276436717  8.4017624053349067 13.4667731771823007
  6.8733591315524878  2.2012015027740710 13.4681428006837898
  5.1230050410325143  5.3064532810609846 13.4696904337810910
  3.3734450004723819  8.4013752344219323 13.4703623385641222
  1.4144393679062497  1.7637377904983533 20.7250490617030785
 -0.3299894598824643  4.8633162051274068 20.7181304668772057
 -2.0724244432854078  7.9599808097584344 20.7211316850823550
  4.8660786967957632  1.7499829500367128 20.7186556221429647
  3.1137737341166449  4.8569600703380411 20.7247418946446977
  1.3709379779386988  7.9596218632582083 20.7202201045011414
  8.3122518814380584  1.7606546532252916 20.7166382656991139
  6.5641921616166004  4.8574614702339236 20.7201160202749683
  4.8132248942718583  7.9580856073857991 20.7209575384660027
 -0.0011765847325540  0.1167377002657905 11.6250634299271791
 -1.7482273095431109  3.2173966762902579 11.6250549032281558
 -3.4937323005471144  6.3174894925384093 11.6267177405363533
  3.4458078210946033  0.1160659219102539 11.6334972685903679
  1.6927239416750519  3.2168163506820360 11.6256091631259313
 -0.0499862580795825  6.3094515961736901 11.6296514063737355
  6.8808712445978415  0.1119892930000501 11.6250725692012047
  5.1403336304202369  3.2187269042055866 11.6230124170467715
  3.3894559564844711  6.3146005347740797 11.6206970836954486
 -0.3104689854280642  2.7731831295159202 18.8773482929263245
 -2.0580846508358897  5.8785324691903291 18.8769943102131776
 -3.8023347008880797  8.9767232636406913 18.8799683665389253
  3.1321360093125428  2.7708186397645433 18.8767691073108352
  1.3894348181014284  5.8756500268500309 18.8827587857211725
 -0.3538361902887088  8.9787357948631001 18.8792053605034553
  6.5809161028856140  2.7714938018986501 18.8794033658974776
  4.8298590319937453  5.8710950820056880 18.8773581077666570
  3.0836651564257904  8.9752952956487011 18.8776398541789234
