Te Mo 
 1.0000000000000000
    10.7546548971230340    0.0000000000000000    0.0000000000000000
    -5.4449450671021076    9.1399582966609838    0.0000000000000000
    -0.6868589222318048    0.8078083619676786   29.3976467023834331
 Te  Mo 
  36  18
Cartesian
 -0.2367042407483670  2.2907284418396952  9.4274998540417254
 -2.0516194082254757  5.3374659589091262  9.4284540560545409
 -3.8612317599512189  8.3910657581078834  9.4228678160345716
  3.3489998363331566  2.2940134990400800  9.4229168902736955
  1.5411215949382897  5.3346863383110295  9.4283384057968558
 -0.2810191743247187  8.3838098703527280  9.4287566347312364
  6.9317760904174675  2.2910804350259730  9.4271178613266002
  5.1191722054361977  5.3364622085277897  9.4284153419035999
  3.3028211226989486  8.3849819356322435  9.4349167224932025
  1.6894691464181979  2.9904646429121398 16.4154518297552698
 -0.1198811143410276  6.0400020804846202 16.4149857781408386
 -1.9418350087713097  9.0879218476418853 16.4106551706993109
  5.2738061333417861  2.9899331793126751 16.4169323946414458
  3.4551385737374858  6.0351566232730045 16.4163497099495395
  1.6454057074809623  9.0858222531854143 16.4150267251926962
  8.8605370210179544  2.9873953615207491 16.4197190843647540
  7.0421084531154676  6.0372140240653618 16.4164324452380370
  5.2246716751586435  9.0856395135831320 16.4209070330635782
 -0.3187919607634213  2.3850817635084880 12.9761032158348986
 -2.1360973821493210  5.4266849457463824 12.9783643659481243
 -3.9462089263668121  8.4737304940330986 12.9832086850018609
  3.2638187853470697  2.3899685491309581 12.9788153112090114
  1.4503374634354578  5.4304489127291680 12.9847140047089198
 -0.3697203867574872  8.4763540899537677 12.9836742563395315
  6.8426147387385994  2.3915406698629211 12.9818614882108143
  5.0351036440704373  5.4415251770851363 12.9868229070403860
  3.2222990464099248  8.4755296235308375 12.9776390691951438
  1.6080243620483792  3.0928469733351545 19.9646131850189832
 -0.2089737987853491  6.1338990299522251 19.9702009601691763
 -2.0227869726001724  9.1849774072895531 19.9699595271229278
  5.1900695512129511  3.0865166078776971 19.9710612864854262
  3.3752268582069003  6.1350302309957421 19.9684447631572617
  1.5645658700927150  9.1854020919473314 19.9643002520989263
  8.7784478616459758  3.0879037162180869 19.9735787457721230
  6.9639086491707110  6.1322711878169223 19.9673953350610240
  5.1434396954878396  9.1808204996188074 19.9769742201119058
 -0.2618165650543821  0.3075247530188567 11.2031536355985413
 -2.0792067693422580  3.3543635509110721 11.2057516842537446
 -3.8901696126635330  6.4044643456175852 11.2006018139731864
  3.3257596447338909  0.3017063251516431 11.1993842307400886
  1.5022338998419837  3.3554813719429499 11.2032579430477259
 -0.3114692372143406  6.4003932110195603 11.2029145176121467
  6.9128423099352343  0.3095125714995779 11.1999150359929693
  5.0927484103541563  3.3536573894612878 11.2043956895064962
  3.2787147049676753  6.4068256919877449 11.2091716951999079
  1.6646451280347363  1.0139206580694511 18.1887872829583621
 -0.1570749459041083  4.0521521277047183 18.1846348055456097
 -1.9693180232806196  7.1010900761052289 18.1910493568608871
  5.2390335391643461  1.0112954044338962 18.1937667924917612
  3.4268545772252050  4.0524452543518432 18.1859963377457454
  1.6155634778967221  7.1065880864825317 18.1961468367955739
  8.8312685718646318  1.0082348556784306 18.1942764062898483
  7.0177894810627288  4.0555914569466998 18.1936984989983550
  5.2052727118061943  7.1028744165278663 18.1982484446396242
