Te Mo 
 1.0000000000000000
    10.3197238607810444    0.0000000000000000    0.0000000000000000
    -5.0698106723597993    8.8734283164175523    0.0000000000000000
    -0.6689023805110146   -0.0485958913082429   30.3689933255642259
 Te  Mo 
  36  18
Cartesian
  1.2742202658835442  0.9455160953971875 20.7358697270040189
 -0.4168595063962080  3.9107090491658476 20.7361631913339082
 -2.1135161225334738  6.8690481419921019 20.7290305632202809
  4.7199104074287783  0.9557657927802166 20.7381790556417407
  3.0247999461915578  3.9065587203250294 20.7390033151138340
  1.3300861955896852  6.8691777168587800 20.7321776937647790
  8.1516818480022994  0.9546924999883224 20.7409562574061894
  6.4610720143088116  3.9076728738236084 20.7361259809172189
  4.7686492385138051  6.8670972410000930 20.7355818525191573
  0.2859955614783104  0.9688084088836419 13.3030107914386413
 -1.4007947116818804  3.9239605627018146 13.3013480851700816
 -3.0911117813582485  6.8809308283133674 13.3061654685860287
  3.7218795034345180  0.9617420873509877 13.3031987820137818
  2.0377772534711300  3.9195724515159927 13.2977001472375456
  0.3451734088349903  6.8777957480702669 13.3073463054429002
  7.1716771628652536  0.9642097408742782 13.3046076702775853
  5.4815385261380545  3.9234546017525651 13.3020932639243554
  3.7902650671944151  6.8769024006591657 13.3028993798795980
  1.3518190443154230  0.9611003042606536 17.0636696874799974
 -0.3363482405348957  3.9161104310575903 17.0639768132278533
 -2.0226282418893953  6.8794486685788216 17.0664347847824018
  4.7934424168952381  0.9587739304504853 17.0646161571911037
  3.0979264523447760  3.9218514612597866 17.0637289370689480
  1.4090039814126378  6.8725710717928008 17.0674364905452229
  8.2334894815220938  0.9584439165593740 17.0644697804376122
  6.5433857142388439  3.9181545371862505 17.0626633717358303
  4.8567991848436964  6.8676511574279635 17.0697348175822015
  0.3711923719955104  0.9712990325602845  9.6306832251217145
 -1.3191213325066238  3.9280779999082029  9.6340413109381959
 -3.0084711021206494  6.8867281273982588  9.6354288510695731
  3.8161357817743613  0.9723252034667773  9.6379908436667012
  2.1198826449654256  3.9213537498370781  9.6400655995848794
  0.4244211255394613  6.8920450282363861  9.6371083414599781
  7.2572098043073705  0.9701479964840698  9.6281450820310539
  5.5612304317280916  3.9347781541622284  9.6277442258696126
  3.8711156217269314  6.8853281023759152  9.6325792339752994
 -0.4165437688710225 -0.0291273554170576 18.8989190444787205
 -2.1065482262825750  2.9278794765420275 18.9005928414380477
 -3.7982801600100475  5.8794207062220316 18.9060416185154914
  3.0292274212099115 -0.0310796680612752 18.9045275583185060
  1.3273475196415887  2.9239806958027796 18.8933511886301062
 -0.3581582437967921  5.8844912197901600 18.9012307202066729
  6.4636465100368916 -0.0320569627221592 18.9011832654703333
  4.7710733610623430  2.9269685142550927 18.8997585775526176
  3.0874095631380132  5.8859096280454288 18.9041067345087370
  2.0411169906016360 -0.0210003546820975 11.4703466419911866
  0.3544941855306485  2.9360651033482488 11.4738537096713920
 -1.3440887992963337  5.8923473822680874 11.4650853689299961
  5.4813108135486113 -0.0207818799939078 11.4696996532218876
  3.7921311901974164  2.9393451641215087 11.4707094425699516
  2.0934600288336029  5.8946446267769117 11.4629889784800305
  8.9196789486743082 -0.0198475280893063 11.4647707125693508
  7.2289088820039256  2.9403018716596394 11.4676718432475973
  5.5404156307419070  5.8987561143875658 11.4690176943006055
