Te Mo 
 1.0000000000000000
    10.2826761472749801    0.0000000000000000    0.0000000000000000
    -5.1269665776243967    9.0876053483949590    0.0000000000000000
    -0.0896540298735216    0.4049269376871079   30.6361821099971898
 Te  Mo 
  36  18
Cartesian
 -0.0268010404034540  2.1577415442972137  9.8265190136425815
 -1.7345288590409531  5.1785052364182098  9.8240198539548924
 -3.4432651053426726  8.2077002257371596  9.8240101301250551
  3.3965780458977775  2.1470783080547551  9.8202806812699794
  1.6909562813970169  5.1719873838968651  9.8207712566824661
 -0.0187244222629012  8.2066037478357785  9.8191889214762629
  6.8318152363838145  2.1542476710142724  9.8293067750195711
  5.1256027443225758  5.1736899805395895  9.8290831560368890
  3.4117888252891868  8.2074812733642712  9.8236146837148173
 -0.3369513628528354  0.7322819756729761 17.1066842643000179
 -2.0438788032441000  3.7604251393854087 17.1098212291520575
 -3.7518789654780611  6.7940294405756960 17.1132695761737033
  3.0912537927344057  0.7254412242085636 17.1018820034367032
  1.3808584393872376  3.7606592357846029 17.1112152907615744
 -0.3237568187882921  6.7891590215472206 17.1082420905987043
  6.5173970206110452  0.7287195942368943 17.1082193511811731
  4.8119737894865962  3.7601767562769650 17.1104976642964779
  3.1037413475269071  6.7905937295906895 17.1097180194546894
 -0.0386597564702732  2.1943367542787771 13.5232676620882089
 -1.7436455416336758  5.2274265982052688 13.5299708703085138
 -3.4552909689923585  8.2562009938321079 13.5287261546810456
  3.3994776580234083  2.2001705587548668 13.5258994658375844
  1.6875530400991556  5.2213387514739704 13.5299389263674339
 -0.0266518033559730  8.2548298699371383 13.5258170790600740
  6.8186031764746744  2.1974803855780829 13.5272678627331349
  5.1105256690952530  5.2266955369786343 13.5271258116910005
  3.4005275918219899  8.2560800097570848 13.5269949160373972
 -0.3460773116697454  0.7828401513952825 20.8155492220173670
 -2.0564841235366647  3.8101774769537360 20.8081553460993760
 -3.7610190604347693  6.8350704582049095 20.8144902843512263
  3.0762422206924618  0.7755460903754193 20.8093148016685205
  1.3729833859925691  3.8088366696797964 20.8123569701823854
 -0.3375255282880050  6.8388587755311336 20.8112771302412227
  6.5138206476456393  0.7854222924392762 20.8172829631741507
  4.7989634130690977  3.8122493156237334 20.8124162452830888
  3.0933307020838039  6.8375215254237194 20.8107912059459181
 -0.0359432936090599  0.1525013742606527 11.6744974546347482
 -1.7382726243140818  3.1861296386677487 11.6775732217474530
 -3.4483168541909803  6.2104217267273079 11.6675240936440563
  3.3931445784843737  0.1514159168186134 11.6708687720378546
  1.6842267551453862  3.1823161699987406 11.6790507656104037
 -0.0290669501080540  6.2190824250125427 11.6808024944377653
  6.8264170952140812  0.1584360821240202 11.6705686000919950
  5.1132978734837859  3.1847833974477218 11.6728883844951010
  3.4041827548198382  6.2113103277636892 11.6684110814543551
  1.3727282211656757  1.7659915202386827 18.9629509493918960
 -0.3376302283919848  4.8021077381333992 18.9575528673830647
 -2.0372178662003333  7.8230398582208860 18.9523913153100949
  4.8043376597662135  1.7644175224748158 18.9619110500190828
  3.0979170732916170  4.7905996376328872 18.9648863411534556
  1.3891069730718959  7.8211592997770278 18.9646022807839714
  8.2310791394134686  1.7662324088513623 18.9600191075378994
  6.5176788011698337  4.7914866019371907 18.9682445214740092
  4.8094038215106751  7.8241676480272186 18.9579709541137653
