Te Mo 
 1.0000000000000000
    10.4915805273570903    0.0000000000000000    0.0000000000000000
    -5.2371431275577578    9.0700407573698989    0.0000000000000000
    -0.6069503869607198    0.6053711352453379   29.5217404542757649
 Te  Mo 
  36  18
Cartesian
  1.3306064498457346  1.4200442779953599 20.1567265770051876
 -0.4158385490350324  4.4458186699180295 20.1511728512088517
 -2.1563764226420146  7.4678098695807300 20.1570058259411766
  4.8300689610209844  1.4204853569574054 20.1578304409853537
  3.0867167596750837  4.4445989080338082 20.1573866892690887
  1.3384610345015151  7.4660987218531520 20.1545107207522634
  8.3248765645270808  1.4161669425894474 20.1586300056709682
  6.5799395474488227  4.4525261240042875 20.1539599680147390
  4.8391819827048481  7.4684018939988333 20.1551556414028816
 -0.8425785560110377  1.2744086735672806 12.9377920178858066
 -2.5977289533909667  4.2945918093791962 12.9337335880849018
 -4.3385443238161123  7.3160614828547494 12.9323278265644781
  2.6503334888899284  1.2681656158456933 12.9340517759286229
  0.9081611190440226  4.3050720536041061 12.9338720176847310
 -0.8425634882848246  7.3208830932598445 12.9343586004515974
  6.1464384119031052  1.2719699326935476 12.9368409750144693
  4.4021172496783398  4.2955880006849547 12.9336821418514827
  2.6518200766926490  7.3216729595486116 12.9271869476072414
  1.4108672390382100  1.3483715288627602 16.5903160576692272
 -0.3380518280203029  4.3709235044686192 16.5889158926658808
 -2.0881234443647894  7.3945633823508308 16.5920180410100500
  4.9022405644931935  1.3507549717206593 16.5913155151519085
  3.1589940406230381  4.3679010755925338 16.5807045043493630
  1.4161586153156440  7.3968582223190475 16.5912611241926093
  8.4060116405814700  1.3482069428593855 16.5919721204056074
  6.6567913941579189  4.3698903427626226 16.5865783728538005
  4.9115716708274277  7.3948766379035371 16.5878352176107633
 -0.7688331012349399  1.1999261161518222  9.3684521608541047
 -2.5147454103712739  4.2261764474595811  9.3708408028215118
 -4.2627377728074238  7.2435375063115135  9.3675577213722629
  2.7239645738652536  1.2002469320412279  9.3642708676329338
  0.9769553590090515  4.2205548715813217  9.3637169908329643
 -0.7698349467771654  7.2465246549376969  9.3671129145909617
  6.2183006417525926  1.2009410194914392  9.3680862825417002
  4.4683558688498044  4.2296118497190767  9.3610438043375073
  2.7328298630823964  7.2514972868242094  9.3574811544015315
 -0.3758673978873108  0.3741579845955538 18.3704232786282304
 -2.1178747101642528  3.3974063781949821 18.3758409635191029
 -3.8697416346372653  6.4271116144113662 18.3640429925920721
  3.1195314091254964  0.3763348965616080 18.3722884045609902
  1.3750886333208254  3.4032941938385695 18.3682939230569353
 -0.3765286665100731  6.4278271886922296 18.3710029881274899
  6.6161031781029171  0.3765096695938749 18.3747140194703249
  4.8709041573058940  3.4002511464004326 18.3723916096012232
  3.1271570505338371  6.4160516796377207 18.3713538173665896
  0.9339701603960963  0.2271724567243557 11.1505039963961288
 -0.8088530775189782  3.2516250541432199 11.1478093144516190
 -2.5614321521206547  6.2767505236062755 11.1562818299010189
  4.4364634130693368  0.2309708361712289 11.1455103565264544
  2.6877838286693958  3.2534869121334071 11.1497815262184474
  0.9355981309799167  6.2735746285124492 11.1552379916874553
  7.9321534139467946  0.2377124681674196 11.1459339549313174
  6.1842323433542328  3.2527189202732156 11.1476985541471372
  4.4397258788384946  6.2755827194522666 11.1484546985257804
