Te Mo 
 1.0000000000000000
    10.7686171480885946    0.0000000000000000    0.0000000000000000
    -5.4251208213671829    9.3110271997769019    0.0000000000000000
     0.3451888686252207    0.4900627918006484   30.1499080676530049
 Te  Mo 
  36  18
Cartesian
  0.1031412032581170  2.2286895490909586  9.6723326390685731
 -1.7043651474404891  5.3367319951995578  9.6707347458494972
 -3.5107550707054456  8.4297864635171553  9.6715753347572591
  3.6897316822832757  2.2275200406402016  9.6707436759137693
  1.8828118725034564  5.3314189379176318  9.6708352986515109
  0.0744365577560111  8.4341338452215844  9.6713742949341537
  7.2827813814703664  2.2235103533711653  9.6665374178471382
  5.4766870999929855  5.3319480077951189  9.6624377526672820
  3.6605328969367621  8.4383169534219267  9.6622941872974319
 -0.1101775472654432  0.7897504155210679 16.8398989991961585
 -1.9170849687161375  3.8922843840639358 16.8369620431132709
 -3.7273104710977196  7.0022842328785586 16.8308165093185664
  3.4787126874571004  0.7922863738039330 16.8358614215383291
  1.6702224694476273  3.8888994462644701 16.8375476298097198
 -0.1410440853940898  6.9961860412194374 16.8317794611829221
  7.0737086161413343  0.7883970141084389 16.8401507818782648
  5.2620714511577225  3.8946270340662958 16.8380948549407101
  3.4603076475884320  7.0028121459196155 16.8352698907870142
  0.1435030510166374  2.2860853979458553 13.3114815828075574
 -1.6603698279828456  5.3864797304864886 13.3131462259092359
 -3.4768349798267084  8.4953423940495707 13.3093672346076417
  3.7349865608032533  2.2827600873166136 13.3053334975539599
  1.9244798471572118  5.3892961351087765 13.3123943874364237
  0.1162172634010541  8.4861151095511307 13.3125993333312991
  7.3198276478448365  2.2881766680947702 13.3103117624696807
  5.5150060126703995  5.3881492710931438 13.3142224716836655
  3.7103932018236199  8.4949188840551262 13.3082405111396227
 -0.0748033447054317  0.8461086812281327 20.4791256564369952
 -1.8705349614284659  3.9494662590088141 20.4785810054538082
 -3.6828034399040521  7.0616476213949619 20.4858930266663819
  3.5203409043602463  0.8484033222958297 20.4782748595211643
  1.7126671966416942  3.9538601195538705 20.4833191322044748
 -0.0937831188223628  7.0576880805926852 20.4765224164807940
  7.1132273969266651  0.8528562111137057 20.4859319137481393
  5.3067159280984457  3.9569500971838987 20.4853993812538917
  3.4947507000625300  7.0581158317747210 20.4837705679783681
  0.1327734891597935  0.1844606624942341 11.4915305847340257
 -1.6763036944847849  3.2911212761279440 11.4907385473555053
 -3.4794950471848942  6.3987753610115092 11.4897852971620846
  3.7220057265413788  0.1883484598643902 11.4912194398002843
  1.9127177464229490  3.2911122306925633 11.4909331744815226
  0.1019886848987230  6.3969853418275271 11.4928773437627125
  7.3085882001669384  0.1875510022535659 11.4923200985881309
  5.5046592147517037  3.2877274987291085 11.4870147474094271
  3.6975038145008758  6.3981083532867222 11.4944408211699081
  1.7069465913590942  1.8588024565214369 18.6594462138966009
 -0.1037081127933144  4.9571527248078509 18.6638569116880682
 -1.9183460770339484  8.0637949579307850 18.6585744310834372
  5.2894694941942673  1.8523281295804135 18.6619756779562067
  3.4868756495272986  4.9622796118968937 18.6606978174251594
  1.6779095395016683  8.0591539698679462 18.6547685271291890
  8.8816295210791978  1.8535856202349141 18.6596793061964412
  7.0731994828131031  4.9629495262385923 18.6613794322421356
  5.2587629218881897  8.0611295444954365 18.6565255941316188
