Te Mo 
 1.0000000000000000
    10.7971689658966934    0.0000000000000000    0.0000000000000000
    -5.2005194788330966    9.2734159268668854    0.0000000000000000
     0.0922689867695955    0.5890671324704768   29.6438950573991740
 Te  Mo 
  36  18
Cartesian
  0.0751608149550124  2.2447294273401552  9.5107250374182080
 -1.6594922752640131  5.3388622986148757  9.5080402074873103
 -3.3896901268310096  8.4274318859711776  9.5004071797783514
  3.6698356870504729  2.2529516928601518  9.5040290744977280
  1.9381501427586993  5.3371305644950704  9.5032370926628893
  0.2065445145281268  8.4327795659080387  9.5073391903864923
  7.2737688784952903  2.2519078745561769  9.5061568164951318
  5.5384467285635157  5.3418783206083340  9.5064153519198804
  3.8042106596875231  8.4324958644360404  9.5067713220994285
  1.5814286495119338  1.8734330521597489 16.5534601302774220
 -0.1519979359333849  4.9661551268851563 16.5564067267043953
 -1.8772114347478803  8.0518489984818693 16.5520667110219613
  5.1893591523433971  1.8810325060201221 16.5568960189583443
  3.4469787330320441  4.9596602219213821 16.5613915160357621
  1.7198581728387636  8.0594143192588810 16.5589833399539330
  8.7796296278337405  1.8702065082009176 16.5503507715422877
  7.0487051800499163  4.9658187818128603 16.5565448640943238
  5.3137260331158291  8.0486164073086588 16.5573757593822322
  0.0798299187657089  2.3149944948783605 13.0859013695173818
 -1.6474693586585749  5.4186282000317467 13.0939787482252239
 -3.3811135339809910  8.5042559348790352 13.0886179489336971
  3.6876182682112031  2.3219945222681448 13.0927770086848874
  1.9448395557981577  5.4173059494650726 13.0831312762676593
  0.2106768403738033  8.5039204381057090 13.0933453593128046
  7.2821685446533513  2.3209462417324200 13.0891605133922777
  5.5492424278705688  5.4118409460185930 13.0888044691975054
  3.8119649804319944  8.5035380061419623 13.0931410939810213
  1.5928312883472999  1.9436787038755432 20.1351610410063167
 -0.1309451667542823  5.0378773148333238 20.1391218911200696
 -1.8724681741354428  8.1344524602509782 20.1442747173550245
  5.1929939273229806  1.9443843880567726 20.1360435681510062
  3.4573606152527527  5.0381674279179203 20.1398574148208418
  1.7262173503222191  8.1269863484864882 20.1387953073992172
  8.7925369022819169  1.9433337563893642 20.1346810832827074
  7.0589043518127124  5.0382073520337762 20.1449206282407296
  5.3234110843343849  8.1195222881152187 20.1407407567726153
  0.0348952864249723  0.2247067704601453 11.2975279264856301
 -1.6907103597602866  3.3208989587170445 11.2993984964679193
 -3.4286053199187014  6.4022215422749120 11.3045222134261838
  3.6362190087911799  0.2226598004448923 11.2996765645583039
  1.8937966239476587  3.3105849748001970 11.2929206635781227
  0.1672237555448505  6.4068899189864537 11.2980582447442863
  7.2323062286851938  0.2232838190295756 11.2980713540758178
  5.4977230985569925  3.3161578893549946 11.2960580851925538
  3.7699221338794486  6.4084913132112771 11.2898480483457231
 -0.1876476399728437  2.9402830369884798 18.3464091167437573
 -1.9186607747602253  6.0246494195971723 18.3503541453368868
 -3.6545828143503041  9.1206283155023709 18.3450030300653140
  3.4176622971055144  2.9421993838064568 18.3470022968824154
  1.6776200231340179  6.0299853106020009 18.3476196191823320
 -0.0556432033200314  9.1227526807482775 18.3466884158253940
  7.0079785026188048  2.9424432540531811 18.3473838439090038
  5.2845649886596791  6.0341550297007558 18.3508961077686159
  3.5454629236037558  9.1226005855347267 18.3450469053224836
