Te Mo 
 1.0000000000000000
    10.3935263399644633    0.0000000000000000    0.0000000000000000
    -5.4207845538013553    8.9708740461924865    0.0000000000000000
     0.8316896323115890   -0.4151268439688845   29.4734764269362302
 Te  Mo 
  36  18
Cartesian
  0.2159535762383728  1.8597460548358282  9.4516535567585720
 -1.5896177656020838  4.8510054137917180  9.4515692116996171
 -3.3961994294254656  7.8359115158493955  9.4426224723506635
  3.6822448945394206  1.8598094310726441  9.4503274054739013
  1.8717675495909671  4.8549281116483218  9.4526587602732981
  0.0630345116211449  7.8336514448035333  9.4482036853039570
  7.1442585616594263  1.8649356232399463  9.4514062823720444
  5.3360013643595998  4.8538670810348030  9.4512620207566371
  3.5319517156401079  7.8407335008402876  9.4500022636336780
  0.1639527613901109  0.2662671147615558 16.4604170551184978
 -1.6416350072209671  3.2549385316683526 16.4603139939657019
 -3.4523280559898297  6.2464845319504443 16.4604083842914335
  3.6347605199590629  0.2659712034936220 16.4540864737930619
  1.8187373733858516  3.2585789321365866 16.4604567620794704
  0.0181682409281954  6.2387458510634826 16.4572820076645456
  7.0880927645121377  0.2604348537387479 16.4624335716576340
  5.2839684374492801  3.2507298691055513 16.4645065952723932
  3.4787757216355084  6.2481216693547967 16.4608573922331836
  0.3224581838588672  1.8074850651531829 13.0160263362496060
 -1.4904667370602300  4.7995026861720085 13.0150362198262535
 -3.2986835123688674  7.7916762316153347 13.0134283697991648
  3.7819371965881068  1.8101933965095929 13.0137386884000730
  1.9763562419850547  4.7998302763499927 13.0128254961256502
  0.1672879256037439  7.7891330512782941 13.0126032196821892
  7.2427136821281177  1.8069556033631771 13.0094524835029421
  5.4434497286632917  4.7995098286954860 13.0192983679487497
  3.6368362742654963  7.7849750291726574 13.0180978457320773
  0.2672629812102350  0.2189431104243075 20.0225096372076976
 -1.5453552240774497  3.2009731010941320 20.0226122516208989
 -3.3461879641073478  6.1951521261863176 20.0256673863874539
  3.7259149324502276  0.2084288860874734 20.0249197171175943
  1.9235683305080953  3.2037087597538298 20.0221649139327447
  0.1188740924200278  6.2007898950605203 20.0254424799649442
  7.1877660325523296  0.2212166476052811 20.0158097811468316
  5.3839004621091053  3.2090165280896716 20.0181875674212790
  3.5798276669325264  6.1958327523557655 20.0230327962384145
  0.3189011721018102 -0.1579759257355544 11.2325320997956251
 -1.4921516580968170  2.8346933472452851 11.2355828290888962
 -3.2955478790031991  5.8218285735538187 11.2306981467416360
  3.7861987128084058 -0.1593474429449621 11.2309289774387722
  1.9759164965249931  2.8332052136428274 11.2327829974421078
  0.1675462479648087  5.8223363866191260 11.2317253754372057
  7.2499345612720587 -0.1624319137725945 11.2283028522083512
  5.4334298795268525  2.8320818921580524 11.2320747215064003
  3.6350855086278404  5.8191737942596209 11.2324362466656353
  1.9241571541505593  1.2339078607564777 18.2481753687746568
  0.1140316772213358  4.2260547300690536 18.2434179509036767
 -1.6934699177246340  7.2190357708272455 18.2387808787099779
  5.3866035659424281  1.2402756582577228 18.2368769421806896
  3.5797573449295603  4.2283623190807491 18.2418110857417339
  1.7684093034298853  7.2170506734122455 18.2398363574027904
  8.8477397673419720  1.2427992716173184 18.2345217013006504
  7.0436029389800154  4.2290591987684047 18.2403813694435044
  5.2363634841216031  7.2202507407697150 18.2381492940445575
