Te Mo 
 1.0000000000000000
    10.4578429269915993    0.0000000000000000    0.0000000000000000
    -5.0869425928290095    8.9057174116737201    0.0000000000000000
    -0.1987451700548531   -0.1756217114221028   29.3196297307985496
 Te  Mo 
  36  18
Cartesian
  1.6153633798963734  0.8744742786129007 20.0167408972304699
 -0.0755359528547827  3.8370660681495199 20.0226166204744196
 -1.7693935572552584  6.8128214294197518 20.0192938867209378
  5.1037773678211549  0.8655115743180601 20.0225934396922618
  3.4175332290864611  3.8423456742032371 20.0118148079844147
  1.7181026594838067  6.8057615577405866 20.0180388454009233
  8.5949574843831460  0.8695921237664975 20.0190101139659653
  6.8966877198929613  3.8366472795309909 20.0132357914953118
  5.2090434691548611  6.8072685105815758 20.0176395179036071
  1.0754388582313166 -0.0775121493764970 12.8458743142336314
 -0.6262488494575152  2.8961173395513979 12.8481656324812885
 -2.3117178164492564  5.8608286542338455 12.8428972380740909
  4.5617036237932709 -0.0778035442519836 12.8440120153484401
  2.8687728197481626  2.8855896528007174 12.8480520974000534
  1.1645599477180451  5.8636786254822093 12.8426275108580192
  8.0464981565243647 -0.0771940018111805 12.8448168280460546
  6.3445290138550847  2.8918957879106157 12.8521095310694928
  4.6562756161834491  5.8656355724635301 12.8482983246941309
  1.6423198125764400  0.8886836634395031 16.4723720010325572
 -0.0504275166193354  3.8565154514671174 16.4782838904884663
 -1.7443734510043352  6.8285052819554011 16.4747344214910676
  5.1310268711237335  0.8898066965453474 16.4733386688646775
  3.4371899672073645  3.8603499954443179 16.4752681245673358
  1.7454347566500992  6.8278047344347543 16.4768837923688167
  8.6188509835116793  0.8870582699253231 16.4768457272950961
  6.9236275330574770  3.8583658246022221 16.4725946295971504
  5.2295966848432149  6.8209543829945014 16.4794615539962237
  1.0978523412793155 -0.0578486174992947  9.2991362402414151
 -0.5970191057854022  2.9126962964863305  9.3002285588172082
 -2.2942100644907866  5.8789272578441718  9.3027605058302800
  4.5848724598929778 -0.0559853652832839  9.3011268017089392
  2.8822699286738813  2.9136308660342141  9.3059139110413440
  1.1972982416629387  5.8774204482257613  9.3051999904645406
  8.0724774935159225 -0.0613870928266341  9.2961991816121223
  6.3732073202086008  2.9120379410366173  9.2991294947554692
  4.6843353201643092  5.8803096119278013  9.2970130175078420
 -0.1217177422160847 -0.1116635759464436 18.2439180108698693
 -1.8198189045649771  2.8588326308952654 18.2463128159950436
 -3.5124535573640094  5.8300495717474332 18.2425551096660925
  3.3629850918498043 -0.1134156600837355 18.2502173511356531
  1.6664152764357045  2.8589950578427077 18.2467897533804795
 -0.0347097698849363  5.8357406173089030 18.2468480495699659
  6.8484929901741918 -0.1085759820966293 18.2483525175231165
  5.1526669273616488  2.8580993772684877 18.2454117974121672
  3.4613649830357978  5.8298381321832418 18.2475310212271395
  1.1154305946040013  1.9150592337043701 11.0700482877460260
 -0.5772899871834158  4.8828970814976200 11.0744111192733943
 -2.2736639192190107  7.8487026701862659 11.0704907768721164
  4.6044836987418529  1.9126037335231916 11.0726623154826331
  2.9088402195172445  4.8810740292220220 11.0725079774149293
  1.2133665316727773  7.8494812827371687 11.0728824016510394
  8.0850148820026355  1.9107248640918271 11.0789760442005338
  6.3920229141181251  4.8851798437522014 11.0785342394376389
  4.7006785489543406  7.8506359503560637 11.0732335896265326
