Te Mo 
 1.0000000000000000
    10.5373956810630141    0.0000000000000000    0.0000000000000000
    -5.2513436241081317    9.2653514594616517    0.0000000000000000
     0.3888733135692173    0.6522674262428236   29.6309274197406829
 Te  Mo 
  36  18
Cartesian
  0.1326054829156537  2.2585264175394926  9.3577643462846130
 -1.6218802341329650  5.3530651487121537  9.3511914101493900
 -3.3717746064286160  8.4433696683623012  9.3560875808922841
  3.6360449700548454  2.2664503972073464  9.3584053061153796
  1.8932890791832637  5.3536070182880451  9.3490410761911900
  0.1402630457266562  8.4432783225623389  9.3594775236722292
  7.1558997204870307  2.2696134246556405  9.3623954643306977
  5.4031489743862444  5.3579721636018993  9.3530669080342257
  3.6498917429841797  8.4384615467981927  9.3665278854677787
 -0.6563097507431875  1.9117459840917219 16.6905385365813395
 -2.4065501386431261  5.0038734117904822 16.6918596738073113
 -4.1644128518675201  8.0864474494362710 16.6900710506442671
  2.8515954811866919  1.9094138370113243 16.6872894517044514
  1.1065509992659870  4.9994736477971164 16.6923757305880365
 -0.6453793011969980  8.0828207964654215 16.6888348921913305
  6.3713583264129197  1.9190140613839046 16.6963281981967064
  4.6121618995870275  5.0045843078753238 16.6952848490576997
  2.8720850653431338  8.0834017522178581 16.6863102046112388
  0.1736375819657779  2.3466870855929991 12.9408961359669519
 -1.5840268032275664  5.4293524967547953 12.9411497150906403
 -3.3282920998217338  8.5219200237258690 12.9371981050779308
  3.6860267914003852  2.3508880822566458 12.9350582004060133
  1.9292128560387785  5.4284876603265522 12.9397982994208416
  0.1826057551987842  8.5229275257156534 12.9436234447195524
  7.1951726314583304  2.3481919966362486 12.9340535008061934
  5.4477713139982331  5.4342449520613521 12.9441661595800230
  3.6935417316629153  8.5190209078726422 12.9362244650721170
 -0.6091752956088997  1.9905148087934308 20.2729876386006502
 -2.3590921165330117  5.0742023585657083 20.2732087107403061
 -4.1100723956874061  8.1662552096184555 20.2717016142980491
  2.9052041431847018  1.9915707658826578 20.2714841352918462
  1.1550754281109030  5.0846209222440493 20.2656583885164281
 -0.5980324156332252  8.1678374435242276 20.2727643715850725
  6.4124146073548625  1.9933900983073125 20.2744930423625078
  4.6632244953156814  5.0834833533669928 20.2692853901280152
  2.9097362493247028  8.1741792349088040 20.2774845009596234
  0.1411822972594119  0.2459760568091598 11.1474533872668715
 -1.6009632438609025  3.3294699745795922 11.1470718976134258
 -3.3495003722689467  6.4207397047128474 11.1437139005434300
  3.6612930082998636  0.2436057394592960 11.1510174093456875
  1.9083335399396668  3.3338617865342215 11.1487734778510035
  0.1548830386033110  6.4230909396379232 11.1462845444179184
  7.1690222402372337  0.2474012007496794 11.1559649013419122
  5.4223864210406436  3.3338569181723332 11.1492244889571932
  3.6699099144195526  6.4189614282332510 11.1465069699470956
  1.1295253012959647  2.9864848714072108 18.4880684528213735
 -0.6281882886991283  6.0696739057173490 18.4799821561222544
 -2.3779317954429922  9.1599172866844061 18.4843879770339719
  4.6415776346592734  2.9824012505723623 18.4838971428251959
  2.8929316195561223  6.0627619668384209 18.4819793634000149
  1.1425078330958323  9.1615701750815006 18.4768266702123896
  8.1570086095354686  2.9868118966041477 18.4819952465847415
  6.3940294376684585  6.0661293721724814 18.4867488919401133
  4.6502723234743746  9.1535333481252863 18.4832645745968378
