Te Mo 
 1.0000000000000000
    10.3646796513479629    0.0000000000000000    0.0000000000000000
    -5.4119970948832048    9.1234571616015057    0.0000000000000000
     0.1800034844112119   -0.7352771941070761   30.5633547683608668
 Te  Mo 
  36  18
Cartesian
  1.8280783165361483  0.5180303509012840 20.8746236004525159
  0.0210486071328627  3.5550770447319588 20.8754585441982670
 -1.7774587799252528  6.5920570316347238 20.8706856486703565
  5.2831042559950498  0.5149729170160110 20.8756707103371859
  3.4718966193294793  3.5469139535678580 20.8709186625150664
  1.6715035715831135  6.5995451801796108 20.8688462859510366
  8.7290750477341117  0.5116225114864370 20.8673279291068745
  6.9308340289218071  3.5518670019725636 20.8674101024417027
  5.1254803049424300  6.5960773368948757 20.8636643910576041
 -0.5180057578084448  0.6914837537930820 13.3946233512506652
 -2.3193040713378275  3.7301379286972280 13.3835415889319584
 -4.1337430881969057  6.7725916038179772 13.3937783216486856
  2.9333822336460385  0.6857093493555180 13.3856435508660887
  1.1246768178663644  3.7382909617649367 13.3905615473076178
 -0.6697766875870681  6.7761141201603996 13.3852562474829302
  6.3865092622565482  0.6918341033877676 13.3934409685640485
  4.5808499703300223  3.7319898940904195 13.3808626347386568
  2.7791819611771595  6.7738352452608339 13.3901274298922566
  1.8052593878654253  0.6010686475175538 17.1714326754482016
  0.0069360730606791  3.6421953042835304 17.1727088683179971
 -1.8022774602608169  6.6916417649783018 17.1709850142213796
  5.2571797889937315  0.5992809723873823 17.1692316552206101
  3.4493048561137525  3.6441310875730637 17.1779881254950517
  1.6514667343306719  6.6780790744513592 17.1765607344286160
  8.7110968320025179  0.6040052205450267 17.1707010852848150
  6.9104931719176363  3.6487789072754855 17.1719306662502369
  5.1042070498413894  6.6887480862974398 17.1795322243362243
 -0.5480121669716360  0.7871035981438487  9.6981908256839571
 -2.3475093323944982  3.8211733080960055  9.6950882234544320
 -4.1514951982918307  6.8546378355270132  9.6994431364134517
  2.9070771718322188  0.7807055694160276  9.6941278822335857
  1.1044371230311185  3.8232614809874979  9.6943096538501159
 -0.6973525790165193  6.8610549158596790  9.6972150719222494
  6.3669356210823098  0.7808157710789467  9.6959515786287671
  4.5610793379312105  3.8222654581886424  9.6958767637619019
  2.7560843988529196  6.8582290115049336  9.6969988254284960
  0.1110284916992302 -0.4566386905576869 19.0190746698729001
 -1.6931449629221886  2.5796013628255592 19.0177897581493021
 -3.4964830172491279  5.6241429980905231 19.0228743798933095
  3.5724865221191684 -0.4590300764585403 19.0253956872157985
  1.7687425720335341  2.5817083803672620 19.0185605621219551
 -0.0409726151543158  5.6218944063067289 19.0190532997022572
  7.0191945516423715 -0.4624509368807604 19.0246874212973722
  5.2116209901551827  2.5847280538705077 19.0147687887943313
  3.4091542879119321  5.6175939856360015 19.0251717865593797
  1.2167756011370801 -0.2783192667301529 11.5454302348825877
 -0.5802171413520150  2.7632457880678252 11.5380559197038597
 -2.3854399851272641  5.8041294412840774 11.5375542387725361
  4.6718005936411648 -0.2710589925961845 11.5367179814220009
  2.8715863994095008  2.7562658146282097 11.5483599123341367
  1.0721359981640293  5.8062797260927486 11.5382993664751190
  8.1372134314799549 -0.2736449522089792 11.5454619458611099
  6.3255271471357810  2.7623940123709461 11.5410807937056568
  4.5195451795923614  5.8051658037746616 11.5404863667190032
