Te Mo 
 1.0000000000000000
    10.3849967472387679    0.0000000000000000    0.0000000000000000
    -5.0765301260574738    9.3525984224746797    0.0000000000000000
     0.2589798189893254   -0.4760382540689381   29.3860914652844265
 Te  Mo 
  36  18
Cartesian
  0.1041718688784841  1.9263275034616658  9.2769617312508927
 -1.5904347261314495  5.0469905762985920  9.2773344696191362
 -3.2804858923710651  8.1544688891964867  9.2798612971626397
  3.5640502853873230  1.9351230977851299  9.2843968993553005
  1.8750129613130386  5.0477088673066239  9.2835558708667563
  0.1810685197890363  8.1699476144351699  9.2784099954271610
  7.0310270866517373  1.9281507003644465  9.2806200969825685
  5.3375089975728240  5.0455151680793717  9.2796692768167954
  3.6508108411096578  8.1621633412197863  9.2750021593547221
 -0.6949248086666757  1.2878718243967389 16.5453006424169402
 -2.3897154286723308  4.4048188333381342 16.5472056152015519
 -4.0770573834174568  7.5283841123180659 16.5531739628464223
  2.7666475033813551  1.2921506130347351 16.5548535462048925
  1.0686556202451492  4.4071176426732421 16.5556122460905506
 -0.6295837472162378  7.5244098312012770 16.5573487115470215
  6.2256074753092259  1.2931378646788769 16.5531871112955393
  4.5287311899860168  4.4036277014256715 16.5484257392644629
  2.8433283720704625  7.5242476202918702 16.5581706365963335
  0.1392645752991279  1.8684504842766969 12.8295702385610699
 -1.5547335343949953  4.9866529753026336 12.8345645606663954
 -3.2483711167873253  8.1077564471743688 12.8345835660183472
  3.6044972217458970  1.8689505343942510 12.8326851542663931
  1.9082971352351257  4.9858487312711466 12.8342380020766544
  0.2165586909129607  8.1068156473298014 12.8314021470061324
  7.0615438776318369  1.8712652047511342 12.8341761429710175
  5.3695664467193351  4.9899133446604003 12.8408922018439906
  3.6750030374271008  8.1026183002542069 12.8274972646317309
 -0.6688984953066369  1.2332185925615371 20.1057054934788333
 -2.3610525966167897  4.3498106278106761 20.1060719524810061
 -4.0564486056340927  7.4604132932053098 20.1089226102671184
  2.7978002889708660  1.2294462495765166 20.1018618487143712
  1.1011491838221010  4.3499822402383135 20.1046897714566271
 -0.5948441590634093  7.4660282597793612 20.1033298757336034
  6.2573151641871876  1.2302029968582751 20.1086751464054743
  4.5623562287917476  4.3503406645456435 20.1081784080434254
  2.8693653868632465  7.4663301613151090 20.1065679914296211
  0.0981975054172917 -0.1773914142018186 11.0587947522868131
 -1.5908626934380206  2.9373375798308881 11.0629768720807409
 -3.2836529844523490  6.0617973472702280 11.0525034643861328
  3.5569801347536578 -0.1722523425906861 11.0548129276028053
  1.8669065236626994  2.9384608955874723 11.0565978955759636
  0.1778045754057934  6.0550983873783641 11.0546169780184691
  7.0190133465381077 -0.1769524549837992 11.0526740985745437
  5.3289505791416785  2.9387274651378688 11.0567559879694794
  3.6336314483238850  6.0547617263958724 11.0608813302223030
  1.0601120769389030  2.2994257053064802 18.3298128016869235
 -0.6290146824530718  5.4170043142991000 18.3352807600220480
 -2.3233754215470990  8.5395208614523703 18.3327312034057428
  4.5137291820918959  2.3008980511128239 18.3234195655102852
  2.8309879233840802  5.4203502247245199 18.3296408661799788
  1.1431228698801814  8.5389413121199098 18.3263678423025738
  7.9820802866756253  2.3039353090632493 18.3315185903582716
  6.2887535477090113  5.4189253259304806 18.3279063024065856
  4.5969511065480892  8.5380985730337287 18.3246161195801456
