Te Mo 
 1.0000000000000000
    10.2910996899943346    0.0000000000000000    0.0000000000000000
    -4.9927242387749162    8.8942658998593913    0.0000000000000000
     0.2188486731235791    0.2441092061732426   30.1605187683808467
 Te  Mo 
  36  18
Cartesian
  0.1040997280952531  2.0547317024480343  9.6715145418050081
 -1.5622778653514600  5.0192005924260608  9.6682196959006124
 -3.2165935453387466  7.9886962559999102  9.6711261772947417
  3.5345095229313706  2.0548168316027779  9.6714379534043040
  1.8693874702879629  5.0184179266901401  9.6700336729492591
  0.2051231582869178  7.9810023282172562  9.6706170536696145
  6.9721472512198286  2.0588399278692924  9.6679416580797728
  5.2960825935412164  5.0241694663253567  9.6696149662752386
  3.6338176488259863  7.9858628265859339  9.6703540213520984
 -0.1469842228018130  0.6273655191381731 16.8479915429718226
 -1.8190710983321623  3.5949796707131858 16.8443981792882234
 -3.4856241659598433  6.5617303909846436 16.8408092415302484
  3.2772814557750221  0.6310338243735957 16.8424270098603692
  1.6107546445059482  3.5953663616814771 16.8442249676920426
 -0.0585832471510473  6.5615517961927008 16.8380010285431148
  6.7101773559712239  0.6317700415336645 16.8391481224267245
  5.0377880049316666  3.5908728936238448 16.8405757695296820
  3.3825386185721755  6.5589899140172614 16.8506624361719730
  0.1336050801854484  2.0882975410676230 13.3137634037767256
 -1.5377277234666928  5.0473923302156249 13.3147707727539455
 -3.1985800500633177  8.0121227589043631 13.3178725007778116
  3.5575136326473831  2.0852511494156682 13.3167152840255198
  1.8961174192105503  5.0481578183644631 13.3180522885630683
  0.2341090269848846  8.0133405022365434 13.3162715726162322
  6.9869233768351444  2.0792210176829382 13.3151752816243025
  5.3255565773224083  5.0446661376659483 13.3124475600766772
  3.6658087343163390  8.0083497114366331 13.3213536900835443
 -0.1287649744487855  0.6543085918522987 20.4938789419546836
 -1.7904900816105307  3.6305818075009193 20.4887803134232840
 -3.4522893014484062  6.5958071614279454 20.4867911931328273
  3.3024170058772366  0.6573471696398826 20.4865014961844203
  1.6328364483885314  3.6258860311069916 20.4846203545575634
 -0.0206967832500197  6.5921245452396420 20.4890892609349464
  6.7372745512125931  0.6650688990168150 20.4884926738433784
  5.0647989181813271  3.6256694240064156 20.4927798723181169
  3.3956926121405693  6.5926127860823298 20.4899064112790832
  0.0806254380991739  0.0931440840591294 11.4909177710769477
 -1.5784643147549895  3.0590753345510078 11.4950531418603070
 -3.2463634646129451  6.0238633686154959 11.4921155623694027
  3.5126498735641953  0.0929093373606575 11.4940100863695243
  1.8503481037883291  3.0579663437172417 11.4930334715560107
  0.1792630050435426  6.0304460371456141 11.4935810414948758
  6.9414792234911893  0.0944754070133940 11.4875607550459851
  5.2749753147313436  3.0577121835059735 11.4990862586525164
  3.6180162032502738  6.0209694431514551 11.4990793854908500
  1.5905722846821395  1.6337960172034958 18.6657525517623419
 -0.0793448048269114  4.5915715865014466 18.6690574843217760
 -1.7403658107951585  7.5577951751670644 18.6589868552952503
  5.0199411271132259  1.6363788687986729 18.6685112152676318
  3.3566993281488648  4.5998082624516314 18.6647476921391409
  1.6961481700910450  7.5658380876844067 18.6698659151646886
  8.4473409422846508  1.6365448385148724 18.6660956661554387
  6.7825940892508001  4.6008213039862165 18.6704657884926526
  5.1158678678594667  7.5647840163650457 18.6594934027989723
