Te Mo 
 1.0000000000000000
    10.5067265913637797    0.0000000000000000    0.0000000000000000
    -5.3032741825360041    8.9560094788382845    0.0000000000000000
     0.0990886473799465   -0.0547465629152389   30.7104148194492588
 Te  Mo 
  36  18
Cartesian
  1.8124385348734346  0.9626185019321967 20.9666671890785565
  0.0475156440656019  3.9403550859739784 20.9676561421306147
 -1.7143998562383598  6.9331575954780176 20.9675147496963170
  5.3114901378772581  0.9580427642481250 20.9678954025097681
  3.5556766712745920  3.9431749843519435 20.9746238279576716
  1.7785035910922860  6.9235340101105622 20.9719238990990391
  8.8215505191513781  0.9605733897211113 20.9681139571103401
  7.0539893239895424  3.9409733772443336 20.9652255731245241
  5.2820863107903433  6.9353913831431235 20.9661303599071580
  0.6237967837098508  0.9730144309338098 13.4567681391089451
 -1.1466768994010359  3.9564125979996341 13.4542418218851321
 -2.9119291675848196  6.9437412748144665 13.4522879101775814
  4.1182066667853663  0.9709980458565414 13.4565946510291479
  2.3556819045448147  3.9512527790995864 13.4485801137205971
  0.5882912530131672  6.9420211331011270 13.4546945917694352
  7.6255186162098063  0.9709755616163793 13.4525346710890261
  5.8539688718410448  3.9604300448585019 13.4534816304441485
  4.0900211736871528  6.9367577995482268 13.4547852842179818
  1.7992021708644323  0.9683656534668191 17.2553927751434095
  0.0369528724640216  3.9543740606947981 17.2498754009350037
 -1.7387885727750030  6.9331237592172315 17.2636281467055035
  5.3053320299773619  0.9647974946838570 17.2552961604965596
  3.5357832507475209  3.9552096088692701 17.2593048326768255
  1.7676777179929086  6.9398313764002610 17.2513254674900018
  8.8090866965135639  0.9595030759638965 17.2564838511374070
  7.0375904463670702  3.9498027774551687 17.2554944699273669
  5.2677562635519513  6.9351470732273324 17.2568715063957612
  0.6098975349393260  0.9827053602159839  9.7407702074114422
 -1.1632465591479553  3.9689839662671784  9.7452691795425146
 -2.9246739767878536  6.9448176777286257  9.7435539481548403
  4.1193186740871583  0.9742414074507020  9.7367780049698194
  2.3462268430343127  3.9620409087277353  9.7445089474181081
  0.5710135200296872  6.9457870205811423  9.7424325425792802
  7.6201412475895456  0.9793744496411925  9.7404555539447522
  5.8459825438132542  3.9631412788187936  9.7368820410697872
  4.0772986975080263  6.9540000252208500  9.7423221935344841
  0.0580980457660294 -0.0358214434974219 19.1157699619221759
 -1.7060622148435642  2.9517928109383194 19.1128600560895769
 -3.4763672537797246  5.9349540284283018 19.1115603395284666
  3.5622773074675735 -0.0305450442356571 19.1067361536651177
  1.7996328669213750  2.9505163341961533 19.1088368138131308
  0.0281554818273477  5.9374211561349135 19.1110453911507463
  7.0702817447530570 -0.0305346861518194 19.1118009077027153
  5.3025783249134655  2.9512340679004061 19.1160578484457595
  3.5286843390795148  5.9335051824646676 19.1180236670484263
  2.3701199070964143 -0.0155134680394302 11.5960231682580037
  0.6004845060406873  2.9583968256393240 11.6041852859591952
 -1.1664658588756653  5.9489679413180667 11.5988717138450959
  5.8764475148053616 -0.0284957705517976 11.5934234010272643
  4.1066975654107560  2.9662271274590535 11.5981158399120012
  2.3398128404272036  5.9533107930827907 11.5961849601857718
  9.3755476728467961 -0.0199092237325918 11.5997066521195027
  7.6081738119080091  2.9715485263494252 11.5919434531050047
  5.8419719854868370  5.9468102770320135 11.5972238791442095
