Te Mo 
 1.0000000000000000
    10.4401670832497260    0.0000000000000000    0.0000000000000000
    -5.0522529398758822    9.4250714069754160    0.0000000000000000
     0.7301951802524499    0.0612168037424735   29.3321222365314043
 Te  Mo 
  36  18
Cartesian
  2.2603800182420977  1.0878789372074906 20.0295709551300547
  0.5693560801188019  4.2340215246249198 20.0254341049825513
 -1.1123339691552507  7.3697376940858614 20.0309200074605691
  5.7357198005619408  1.0937380430999335 20.0296689295573564
  4.0605674477408220  4.2266096090562542 20.0229636832695483
  2.3691494067831740  7.3723948378670450 20.0275504682510075
  9.2236492072934677  1.0918304094685483 20.0346909971994833
  7.5287958868463560  4.2335077187157024 20.0339410390965398
  5.8515497267532153  7.3717297001404134 20.0304474724892252
  2.6457893767326861  0.0304868008798959 12.8504678258162706
  0.9598185350474168  3.1646915421648827 12.8437492204965586
 -0.7293438534541538  6.3125988972303819 12.8561217186174233
  6.1190238808237352  0.0250161431089288 12.8515866397707974
  4.4376687700080044  3.1639468530172232 12.8443254496540504
  2.7548884753494587  6.3029579278501915 12.8549975874199287
  9.5947375558000196  0.0209009596712977 12.8554656406790553
  7.9155067048094132  3.1695682531142437 12.8407660426825441
  6.2359485197172075  6.3152333597760917 12.8478008127253478
  2.1710723416675477  1.0762939140903649 16.4754490065863664
  0.4866928865603023  4.2225950766863702 16.4814681339129372
 -1.1923896581658326  7.3669865304538424 16.4797087296078963
  5.6453270922246936  1.0803331810589385 16.4831313776350505
  3.9651487463549655  4.2222355126196307 16.4805867406886151
  2.2807387180445189  7.3649134996585941 16.4813541924615663
  9.1338520241480090  1.0860216260123197 16.4841187551733732
  7.4444153263857658  4.2240490070730718 16.4819682047660407
  5.7609136631608067  7.3650361758631542 16.4815342723916061
  2.5510863101656640  0.0205954055041532  9.3061570285953898
  0.8646936174576202  3.1592964844990119  9.3127900633916898
 -0.8156589976767912  6.3057066757568974  9.3003499727243231
  6.0408540136717246  0.0211572992031634  9.3072890319704573
  4.3511024824613713  3.1661714408874451  9.2994277299888140
  2.6628238746458295  6.3071485458627583  9.3016658678397182
  9.5150159192316757  0.0216159968862520  9.3022933394814533
  7.8287643468613783  3.1548411210137779  9.3051237150391852
  6.1388597682201178  6.3013973005438677  9.3031611341662916
  0.4602407328129303  0.0375923858174349 18.2603923792925045
 -1.2318385667119052  3.1847081500099033 18.2492745027002528
 -2.9100277699048789  6.3144336394202893 18.2500131295191927
  3.9385946720336777  0.0395433185377427 18.2589961162580785
  2.2524259124775665  3.1820210535064444 18.2517478056295310
  0.5707353913317450  6.3220623748468610 18.2535035303503328
  7.4145636166322459  0.0384341491798442 18.2551289051165959
  5.7301958919537430  3.1800630355392516 18.2556806738806614
  4.0443647182304261  6.3212136711249203 18.2558246732510696
 -0.8449508781548268  2.1234301217114675 11.0753238184824099
 -2.5256612878580729  5.2616604729758425 11.0826060855289281
 -4.2154770610293371  8.4027949441809771 11.0780486544500558
  2.6336690708085757  2.1161218986601824 11.0761112852078902
  0.9494006671329416  5.2646130273226950 11.0811960957190454
 -0.7369747130571598  8.4045254558822595 11.0824942541922518
  6.1136423770208674  2.1177837634776733 11.0777272872556711
  4.4251204876658186  5.2645091421303851 11.0798279647023463
  2.7405738402395712  8.4032523205100667 11.0760232616201613
