Te Mo 
 1.0000000000000000
    10.8131652671346927    0.0000000000000000    0.0000000000000000
    -5.5536269076250688    9.4118208907862968    0.0000000000000000
     0.1015409337819872    0.0170655291120265   29.3989117044336830
 Te  Mo 
  36  18
Cartesian
 -0.0046981168718146  2.0918379348165348  9.1952637060361084
 -1.8499714919460095  5.2367379460327461  9.1954239815917145
 -3.7034132124058035  8.3724224750975687  9.1959606296922161
  3.6035731747132758  2.0964853617943402  9.1956925226305124
  1.7551239422290532  5.2292689995461981  9.1988256570952949
 -0.1033974267644111  8.3674847827431229  9.1914057592230112
  7.2111707183692930  2.1011362682799279  9.2022288773089933
  5.3542366289006695  5.2308677011935965  9.1900421839118334
  3.5092480774067831  8.3753605594050633  9.2013335507996583
 -0.2808911750600184  2.6234780428988738 16.6511186623312035
 -2.1321203549781691  5.7646950760034059 16.6471398748934405
 -3.9823066689729489  8.8997550861547001 16.6449210631921858
  3.3172533633185899  2.6275327267658986 16.6479682758126444
  1.4782006151329616  5.7592233942021620 16.6473622537570982
 -0.3764670791896112  8.9023206384887423 16.6518035591616922
  6.9243783822684053  2.6224703356281274 16.6468544885462748
  5.0680367377614539  5.7633484518289420 16.6413441129350623
  3.2155987007713933  8.9017798681934828 16.6431062700771228
  0.0127819845186206  2.0992268984211293 12.7511600592667556
 -1.8412399192288009  5.2298610100472862 12.7452654021654332
 -3.6872533541316050  8.3746962238263496 12.7456940411945467
  3.6117818968640010  2.0967813828045072 12.7436563973321899
  1.7686889402018640  5.2335345924827763 12.7527079718373049
 -0.0908425600766864  8.3771045469377263 12.7522221225664563
  7.2213311788519210  2.0978655835439941 12.7439944142960098
  5.3726374051127213  5.2368734624818138 12.7557236163403864
  3.5163549533535465  8.3726545135039530 12.7524074919180208
 -0.2632927598945894  2.6253910619197862 20.2090416606614269
 -2.1212689660698221  5.7618545169411668 20.2044797978835220
 -3.9747303906200515  8.8971302518541844 20.2015702406871114
  3.3308086871984237  2.6281764489477237 20.2018543393907528
  1.4832476771666487  5.7608959223643481 20.2046833650224329
 -0.3698059661544717  8.9001706763437269 20.2023385986349631
  6.9313235658302936  2.6246309526984795 20.2001362370484259
  5.0859593899898901  5.7628696187665538 20.2035711783424041
  3.2367435555508655  8.8993638666418295 20.2047234047343238
  0.0361649179971069  0.0081016418606027 10.9702288448081422
 -1.8134430788872498  3.1427754642186443 10.9713171129555445
 -3.6723954648888051  6.2784040639616689 10.9738066845923452
  3.6404879625597220  0.0071956287742186 10.9727787240393813
  1.7949685101531110  3.1440478603680955 10.9748024874663397
 -0.0613201240467179  6.2779168999495294 10.9689145063325864
  7.2421483123855328  0.0085729893822203 10.9743533151653274
  5.3950488010320585  3.1477240289663331 10.9690789837947307
  3.5468242989373557  6.2802835472075405 10.9740734820086487
 -0.2475448827396451  0.5373726548168545 18.4314186957331643
 -2.0895887085644889  3.6652177148411544 18.4218211970861176
 -3.9424358872032084  6.8131138884958098 18.4290150456083452
  3.3526513391918171  0.5318464455751984 18.4200630974283079
  1.5157383601712262  3.6745313164664806 18.4284205101685288
 -0.3399157548542220  6.8086959425970974 18.4280754741574633
  6.9655762942526289  0.5330771992257715 18.4226211900218821
  5.1159735678379432  3.6762545346138547 18.4248786347032940
  3.2589885530215761  6.8077557816616920 18.4284998680875134
