Te Mo 
 1.0000000000000000
    10.7074669111764571    0.0000000000000000    0.0000000000000000
    -5.5546666126945414    8.9403965390302034    0.0000000000000000
     0.5248332701132152   -0.5955397260090275   29.7071840486969094
 Te  Mo 
  36  18
Cartesian
  2.1228468325479812  0.5807004724109355 20.2847412217496839
  0.2759477320444189  3.5689520443807363 20.2776846820739287
 -1.5820161393677861  6.5490936199749514 20.2854003360132111
  5.6959973437084654  0.5918641364098587 20.2885156019444359
  3.8380041453607756  3.5615298663145292 20.2829420345467817
  1.9840909766401460  6.5446532373973731 20.2774098186211233
  9.2584701565660126  0.5876557266927259 20.2846717963824084
  7.4057971100100461  3.5711876064316534 20.2890587764315100
  5.5505237597682031  6.5455038920637447 20.2787327593256599
 -0.3788448957129182  0.7353594029738151 13.0149420501445245
 -2.2361444965760660  3.7114090847375873 13.0169323800683241
 -4.0923826620993173  6.6922109748161525 13.0146629696589162
  3.1826886554979961  0.7313802080268899 13.0166750716849613
  1.3313525503985553  3.7094229217404551 13.0130137822171594
 -0.5310601811939835  6.6916973082188980 13.0146830205247266
  6.7467648094041994  0.7313554160312069 13.0116571519320825
  4.9027317823277121  3.7138233723495935 13.0157184004649604
  3.0461267604377067  6.6955411282524775 13.0120492827686061
  2.0561333992638064  0.6608497391475006 16.6937900085595672
  0.2029798830085102  3.6372742259581563 16.6881290607404331
 -1.6496405795503652  6.6249762313650820 16.6941031545641465
  5.6260475387961710  0.6589081614379979 16.6918884079151439
  3.7749835945094583  3.6342357872911375 16.6903338019684853
  1.9226046136336921  6.6211605890581762 16.6944326814078394
  9.1969957649486087  0.6633331065300769 16.6916537120710267
  7.3513608463992650  3.6401330060814456 16.6952076949182242
  5.4952724938738093  6.6206554456805629 16.6964624937463277
 -0.4495673613496362  0.8060761258163285  9.4229144870447854
 -2.3054192738082238  3.7839096025005410  9.4217032453942693
 -4.1552205370633084  6.7644244716296997  9.4225751158244950
  3.1161591636574362  0.8030479143086469  9.4244416734199028
  1.2681057244179121  3.7892868554553751  9.4270772091210056
 -0.5844146344230710  6.7643973540786995  9.4241424953015276
  6.6877344583464398  0.8045586062698462  9.4240154718519804
  4.8412872537119762  3.7896696770965215  9.4227833883363772
  2.9871541323817636  6.7698432257950811  9.4309892358243221
  0.3228971552249759 -0.3704630538028084 18.4906061684237280
 -1.5307540828885233  2.6076002483455269 18.4891769073435341
 -3.3732170819028213  5.5860767890319361 18.4947570211644248
  3.8953357653546621 -0.3707149264482454 18.4878097145413847
  2.0489999506904324  2.6112851006284310 18.4890850383004839
  0.1933293843491355  5.5871097173190556 18.4908852201259108
  7.4604551743497325 -0.3678255396239506 18.4903365767025711
  5.6130399249287395  2.6072152279126972 18.4879491317264133
  3.7618733264457846  5.5799934225624863 18.4866199807867488
  1.3883358100312191 -0.2254079484629282 11.2204228344640775
 -0.4611843901366697  2.7509675818128665 11.2175942307711711
 -2.3125610158959451  5.7409266701841002 11.2237836506944628
  4.9570541128700683 -0.2256328396595967 11.2276062067203242
  3.1044966482273075  2.7545277585500134 11.2186734789300004
  1.2545028294862375  5.7357305021152882 11.2182280600101105
  8.5259756837725984 -0.2311848869167115 11.2226208525701825
  6.6767305159424817  2.7522059464165274 11.2252630497786097
  4.8240747710694460  5.7327855503118510 11.2210843371426687
