Te Mo 
 1.0000000000000000
    10.5477574343405696    0.0000000000000000    0.0000000000000000
    -4.9118279617311735    9.0750013140658883    0.0000000000000000
    -0.3009253802095047   -0.5457236145260141   30.5263433355943015
 Te  Mo 
  36  18
Cartesian
  1.5873525997316640  0.6327898568750930 20.8385007987382416
 -0.0458836626885760  3.6671532105289653 20.8455560430117650
 -1.6801556912946276  6.6854527754103383 20.8444743681216771
  5.1092851843271374  0.6373201551954459 20.8436636321287914
  3.4698105062852576  3.6567407157151002 20.8396423488216982
  1.8345895538855899  6.6830509700654854 20.8422396768635174
  8.6229466992434460  0.6352694963352734 20.8436023768912939
  6.9821846052486753  3.6545972378645937 20.8426323019331576
  5.3500253936486510  6.6857167006146812 20.8429873412024413
 -0.6774940613047927  0.7694693505971317 13.3739337734266499
 -2.3140206117796551  3.7938064380293275 13.3810776004271528
 -3.9523700680417861  6.8230043333270132 13.3735247708502598
  2.8385928114579224  0.7699621357019515 13.3732180230577065
  1.1979782102296883  3.7965535590486095 13.3733281079444382
 -0.4270365611166922  6.8209214946220760 13.3738411732142541
  6.3565864247247230  0.7697537159164360 13.3710880683898132
  4.7168239633476476  3.7940843479462805 13.3736802775291572
  3.0804712852019356  6.8151030349737720 13.3774596326771320
  1.6306632383634490  0.6946162060596601 17.1472424611062273
 -0.0026572570592788  3.7313958612685934 17.1568109737304262
 -1.6440529218889051  6.7443109317675090 17.1509284254845973
  5.1380887634891943  0.7008040006339508 17.1477672205719962
  3.5070351123481633  3.7306710175320288 17.1521304837123552
  1.8708513511815423  6.7448932978721503 17.1496258660633316
  8.6605174135949365  0.7016706770707124 17.1535913069465060
  7.0229669447383865  3.7232671507995230 17.1564011474674452
  5.3809254032690932  6.7556123194145838 17.1463730281027829
 -0.6408036149243683  0.8351819585812067  9.6829636723281798
 -2.2789421516438360  3.8660408849197045  9.6832999986184127
 -3.9182808771084923  6.8877012784446432  9.6867714173882025
  2.8763383441235231  0.8350989930156258  9.6856425461158011
  1.2375240824931983  3.8597277999940625  9.6835810957942243
 -0.4022204431154852  6.8864862268238252  9.6805121106811001
  6.3916353952100069  0.8308327331925320  9.6770300724196101
  4.7532091017954299  3.8608648583727234  9.6826466336179156
  3.1127887978308513  6.8846198930417097  9.6819766677413917
 -0.1898451284212217 -0.3387146884494959 18.9959787402790745
 -1.8267532670950055  2.6874976337444405 18.9961735928873310
 -3.4610142311845054  5.7156772552508475 19.0032545651941334
  3.3285670728251424 -0.3406448296879988 18.9980265740781498
  1.6961570762213267  2.6839889274507187 18.9915042331154851
  0.0541252463414282  5.7105434008505522 18.9981515911409069
  6.8449727211408877 -0.3410679571869373 18.9965373704001337
  5.2091997449359884  2.6797485028698187 18.9917643616096967
  3.5700996803061886  5.7045359877235455 19.0039784717699227
  1.0601141241449952 -0.2128291113152229 11.5332716738695975
 -0.5866580633040551  2.8169308386067176 11.5226914414574892
 -2.2220818353483693  5.8436053439983011 11.5327645208617700
  4.5741498200540462 -0.2067287674840815 11.5288509460875641
  2.9319528541438764  2.8172591507018403 11.5310276165406300
  1.2995985643773051  5.8438758506373745 11.5282206004315260
  8.0968866237692545 -0.2089592224401854 11.5217283545011977
  6.4445668577062598  2.8150998651828583 11.5309225317878887
  4.8148652069140576  5.8436832590608443 11.5285172925368684
