Te Mo 
 1.0000000000000000
    10.6229297557955977    0.0000000000000000    0.0000000000000000
    -5.2513781923686107    9.3569271145367914    0.0000000000000000
     0.0862819454826970   -0.2644223544320284   30.3707276963278083
 Te  Mo 
  36  18
Cartesian
  1.8278985967011137  0.8637839937177559 20.7368023130869297
  0.0880441940668110  3.9778278378987455 20.7364232743573353
 -1.6629017824484891  7.0904062128888867 20.7330596142025385
  5.3756010707831168  0.8614323427335379 20.7362476056050582
  3.6274243087943296  3.9758860306441188 20.7382755129496026
  1.8718747562005666  7.0928325710094393 20.7435979584122805
  8.9151989228684236  0.8548444696989720 20.7342709767924092
  7.1650995155715815  3.9794390462635048 20.7385965672214709
  5.4164839287101376  7.0976758432391032 20.7375771355352185
 -0.5360414905414232  0.9228893364224058 13.3065304050080560
 -2.2903529978999950  4.0479539548225381 13.3034031200931278
 -4.0478224280608641  7.1612910254191924 13.3052240313147454
  2.9955861479651102  0.9246870377068226 13.3029206950173240
  1.2408569801802847  4.0388759454779954 13.3005064322204483
 -0.5038106607579347  7.1612890666476190 13.3097137868059487
  6.5345952748568576  0.9264566204917719 13.3058144398412868
  4.7882374768825384  4.0412399778513031 13.3001014492225256
  3.0375053926004441  7.1625342195921995 13.2994040161414429
  1.8280662099239688  0.8854512419686045 17.0670571700578932
  0.0719017028132580  4.0139799227991526 17.0712123418347694
 -1.6760321593841760  7.1274294642401603 17.0644363994560173
  5.3700127181182484  0.8901836934753657 17.0605094732767171
  3.6170658759500087  4.0148298657785180 17.0675119138251858
  1.8696907325694396  7.1251197556285248 17.0696193123077471
  8.9062650247812734  0.8944112242370464 17.0647767141177340
  7.1593386960534895  4.0100681126549489 17.0641209855754745
  5.4078656033216390  7.1207309623818373 17.0603253341060856
 -0.5479647641425593  0.9545942949542287  9.6386863091848340
 -2.3064998674123993  4.0751988610864895  9.6368903534992345
 -4.0558792933122723  7.1968263262683241  9.6377949767844360
  2.9851461775595620  0.9558964868012190  9.6339711207288445
  1.2346769132373434  4.0714252940688302  9.6365413467812324
 -0.5163237353228356  7.1940094771056700  9.6336172017933652
  6.5267468551116288  0.9549345281171039  9.6341985286639353
  4.7752816186016078  4.0747188742342990  9.6339629764835930
  3.0227074759410053  7.1965309772343229  9.6264315686800295
  0.0468681044805640 -0.1658341018061515 18.9019734052243749
 -1.6976618195912405  2.9536378095571751 18.9067824956249559
 -3.4489517437677404  6.0733176854653115 18.8985659727170301
  3.5878375266354903 -0.1641115218361455 18.9083230176389598
  1.8456912368087750  2.9503355833396498 18.8976322296641932
  0.0954013680931045  6.0749426502040507 18.9005418050876912
  7.1336926933692952 -0.1690760662991955 18.8972810899183443
  5.3886523882418373  2.9543334771547349 18.9009737190815521
  3.6328717585535957  6.0757653176998874 18.9060638776467442
  1.2055287183359817 -0.1035208422916266 11.4740085517583985
 -0.5377456050432058  3.0204284775190002 11.4689871284980960
 -2.2881019499568493  6.1368344031399911 11.4710379062514356
  4.7627483002100872 -0.0984117117816387 11.4720214165882108
  3.0055419070897189  3.0187353769505285 11.4700108038155424
  1.2601879089527317  6.1390791484136376 11.4727642111948054
  8.2946685995659006 -0.0993003959712715 11.4690873306257490
  6.5402145475510114  3.0235143562150117 11.4705829789954699
  4.7966924546227068  6.1334321588399945 11.4621830805412710
