Te Mo 
 1.0000000000000000
    10.4954324257758280    0.0000000000000000    0.0000000000000000
    -5.6951751935087458    9.1216189681359339    0.0000000000000000
     0.5311366426847969   -0.6998612213479211   29.9376588804762136
 Te  Mo 
  36  18
Cartesian
  2.0609677321312301  0.5382773958316793 20.2793104567067601
  0.1646374191788182  3.5727577128087837 20.2769464689326959
 -1.7375312120949975  6.6203063137028142 20.2807282761763155
  5.5652510831004776  0.5382614006194529 20.2773252800864121
  3.6578864009741028  3.5772250202403022 20.2805438144819163
  1.7617808197666234  6.6243207655589122 20.2825843189844193
  9.0547469898482422  0.5392562917813369 20.2814290997730531
  7.1584223065441046  3.5778852010957798 20.2809589930880811
  5.2563699430018573  6.6190790206775709 20.2813894772155336
  0.2398504535825377 -0.3060721728215763 13.2812027950067790
 -1.6630589980730415  2.7300609954027633 13.2731815458830535
 -3.5662284025744029  5.7718217470319333 13.2693222392059766
  3.7342403627334568 -0.3184746433791506 13.2766386836332035
  1.8351216782941826  2.7301029986146386 13.2731011895102764
 -0.0643241591057383  5.7739385784211033 13.2723435225040483
  7.2324113564476047 -0.3101337420668032 13.2734374665161656
  5.3303674242956429  2.7317284820930965 13.2684516210558670
  3.4380016962137034  5.7702542504671719 13.2707712336626180
  1.9922466508863739  0.6173019165477772 16.6630404919629775
  0.0960941807847237  3.6631529571311181 16.6639578462626332
 -1.8010240892208467  6.7047409508818268 16.6641772982686369
  5.4958587270058636  0.6236504187675065 16.6661481850946558
  3.5933434577238628  3.6655505707624596 16.6650172762795634
  1.6983771458276442  6.7051343897295723 16.6620949635536491
  8.9927494730008686  0.6222746152756374 16.6595738306526009
  7.0940876617934707  3.6677722451005623 16.6638676903392522
  5.1949784098386189  6.7100362446958499 16.6616410662241350
  0.1708124887379195 -0.2238176029141623  9.6570042672842700
 -1.7248429693145479  2.8203809107188720  9.6508386360514375
 -3.6259438766795760  5.8554474803006133  9.6565567283760210
  3.6666768032839880 -0.2294996347946505  9.6612665715001391
  1.7711359895005863  2.8196898192997115  9.6516410393375409
 -0.1270747744597535  5.8522768430905963  9.6563949900428252
  7.1689127030031603 -0.2327561991269139  9.6614537303787067
  5.2711838720683062  2.8128516990901291  9.6530260574453983
  3.3770550238393620  5.8552435179769580  9.6529100114213406
  0.3284064269771690 -0.4325010036392254 18.4733963469339422
 -1.5737078905697133  2.6008339031836853 18.4730178366652602
 -3.4690094840127803  5.6489981508250651 18.4733902618778743
  3.8305351315877880 -0.4347448435932355 18.4708592863654317
  1.9275062440939579  2.6048111889335570 18.4686974776090338
  0.0283385765135960  5.6499789805155194 18.4731965028816241
  7.3226181305576796 -0.4324042264232655 18.4770853109201241
  5.4258016844899171  2.6068053832286524 18.4716430744355726
  3.5264379116257096  5.6477675610176279 18.4715370273604158
  0.1044980596366835  1.7585971648279795 11.4651178341865645
 -1.7876372099078544  4.8019204354483582 11.4642759892235748
 -3.6978554408146067  7.8381945307368364 11.4632460670233929
  3.6064943755366183  1.7585945800721638 11.4675835809973670
  1.7045651526867449  4.7948895150921382 11.4708437821813352
 -0.1944951347762054  7.8467924308042090 11.4701986751890210
  7.0994767206042209  1.7611456746280902 11.4664500687695021
  5.2021916549286873  4.7986285122743837 11.4666209171981421
  3.3054478128296942  7.8435784541973170 11.4678119444319506
