Te Mo 
 1.0000000000000000
    10.8131885500968163    0.0000000000000000    0.0000000000000000
    -5.5028795003954301    9.3071015327449977    0.0000000000000000
    -0.1475518438395650    0.1547558693888764   30.4408712829723989
 Te  Mo 
  36  18
Cartesian
  1.6931604401605320  1.1397385865768455 20.6205737190003333
 -0.1428551962817730  4.2456913700352370 20.6181888307324641
 -1.9768412618271891  7.3437385384262397 20.6221260154579262
  5.2958429775686202  1.1409727714645663 20.6236375864850885
  3.4633080913071796  4.2420533507042828 20.6207685397990979
  1.6285475264182805  7.3453403158354078 20.6167496036593576
  8.9037743500030668  1.1326945921025167 20.6182619229683688
  7.0698338533305822  4.2388661868328201 20.6293038359682370
  5.2381708830517670  7.3397715333228950 20.6279100240175879
 -0.0603398237118543  0.0653276036168920 13.4992850064460175
 -1.8968193977795409  3.1728880033198603 13.4985986032662488
 -3.7361152106683337  6.2780921331684301 13.4975848118771218
  3.5393404693294914  0.0673910136536296 13.5023509506353552
  1.7066528533009115  3.1660171367515479 13.4900120902644947
 -0.1310812949343387  6.2795753174225322 13.4906374658156079
  7.1425177133379512  0.0636257401190870 13.5014529482786614
  5.3094348842351389  3.1649233272840571 13.4968019797397378
  3.4748941051451951  6.2735353060006345 13.4960177203203884
  1.7120958025908168  1.1222495691958960 16.9410730928620126
 -0.1189376209040829  4.2264366501882247 16.9475347092209958
 -1.9578779229561094  7.3229858701014621 16.9408192783026408
  5.3142230182182200  1.1203759384718586 16.9430102802737146
  3.4834985384052373  4.2254651484335648 16.9454077711233282
  1.6485811535212898  7.3204195740611500 16.9375311993012687
  8.9181871751089190  1.1192136784196540 16.9442492901581865
  7.0806452768079042  4.2218953556017391 16.9426907147488279
  5.2579738177641557  7.3249658478956032 16.9395713338352749
 -0.0472653056514877  0.0527857650433321  9.8109075825583236
 -1.8809120382552609  3.1574798527993484  9.8126417369378860
 -3.7217427049139151  6.2565441819939291  9.8168747225586817
  3.5534686253628665  0.0494387039311472  9.8214716591452174
  1.7281540020359027  3.1541351666909585  9.8257633584421100
 -0.1110573447119917  6.2528797072504991  9.8193999382472921
  7.1581909834151505  0.0474385275612273  9.8217234045134898
  5.3272956882203353  3.1541792771942463  9.8201481463922047
  3.4918187127371390  6.2560229562870884  9.8157530919691389
 -0.0918911066427683  0.0983702951551799 18.7914951704522899
 -1.9203904796528408  3.1968674671952106 18.7810229989051720
 -3.7601003886404092  6.3000542246048088 18.7837019660604696
  3.5082691391802254  0.0998531308744973 18.7819943849900959
  1.6801437828864521  3.2005219464573211 18.7855664288279129
 -0.1569386093772396  6.2998981030403698 18.7829857161120728
  7.1177004319745816  0.0926695145449577 18.7796904085337921
  5.2839308822278799  3.2011973537689138 18.7860987903546111
  3.4461070202304596  6.2991811432732181 18.7843310945357551
 -0.0776707081002775  2.1268848330157533 11.6593790320117829
 -1.9115414386127974  5.2309796355841955 11.6577041268574977
 -3.7465516909732477  8.3322601275537878 11.6589291869217462
  3.5288291631249846  2.1273743855562866 11.6535028213851675
  1.6947488136590361  5.2242166987828922 11.6522686805731333
 -0.1332482008818462  8.3363280863434870 11.6605984880110576
  7.1394367388214484  2.1289263734494539 11.6619115641961049
  5.2977059553047487  5.2331831838077401 11.6517077179123643
  3.4646438167716695  8.3319548143656483 11.6587647685290143
