Te Mo 
 1.0000000000000000
    10.6649579943677928    0.0000000000000000    0.0000000000000000
    -5.1131937801401213    9.3349003506614334    0.0000000000000000
     0.6010362853633238    0.0634270680855099   30.6941993996910796
 Te  Mo 
  36  18
Cartesian
  0.2442932941635899  2.0921420236504336  9.8389009104754308
 -1.4624614520529982  5.2059466518815025  9.8456422175509459
 -3.1735502370442439  8.3143240353833630  9.8481077853671639
  3.7973723868557205  2.0960121647709729  9.8423999613337259
  2.0876172760749210  5.2080624596933340  9.8478051813284324
  0.3886294228425141  8.3178542749559430  9.8429493009099609
  7.3471149094864581  2.0939690561856348  9.8403164023563150
  5.6458875101360873  5.2060436945547108  9.8444186859411218
  3.9449963181654089  8.3168091772197670  9.8447759518604592
  2.4714067796157448  2.6274300135859763 17.1369707095811457
  0.7644368449564647  5.7395019737489461 17.1338928074854557
 -0.9343302279674093  8.8486791530979794 17.1413359163789067
  6.0270511425818576  2.6263247805349970 17.1326358723032115
  4.3214428911418583  5.7404561459255268 17.1401992210524377
  2.6250321451899006  8.8522088386683606 17.1386073254386631
  9.5813162410594082  2.6279618175432033 17.1430116819952225
  7.8688314408369706  5.7405399770591172 17.1348415953599300
  6.1685656975241336  8.8464915618284241 17.1471032422684075
  0.3183420876358591  2.1061733526073185 13.5560508637772958
 -1.3844592893792020  5.2155847124330572 13.5597879523840508
 -3.0933678780599148  8.3257980017361799 13.5544589092598642
  3.8729166069352665  2.0986045582919153 13.5577756438673767
  2.1631247383835372  5.2157181211565797 13.5454988306953172
  0.4540475628653280  8.3231159719714736 13.5609103154418005
  7.4187860406154673  2.1015401386869561 13.5481219300800202
  5.7248803514572497  5.2122730371643335 13.5616335017996139
  4.0190910380240252  8.3305430731921515 13.5546969431179711
  2.5484570903283497  2.6370069199327855 20.8548150791303009
  0.8382171092489319  5.7484148969364028 20.8493386462782020
 -0.8623616804568150  8.8635814357649636 20.8520486613304818
  6.0974252897221435  2.6360113813501433 20.8513890397950945
  4.3925962478923664  5.7465267302021603 20.8508739355336239
  2.6983319534667345  8.8567965175512491 20.8533103304179832
  9.6537456002258075  2.6372854994556598 20.8509200030937087
  7.9453722016304988  5.7465238801767136 20.8468274192702552
  6.2502840891036424  8.8576344226759200 20.8546526436965003
  0.2306023206004724  0.0255002312041023 11.6993230199520060
 -1.4786441669915482  3.1378429191300041 11.6993321941630697
 -3.1795221295785234  6.2482756773853083 11.6969661709098123
  3.7807769006265710  0.0213203751171708 11.6960808185311720
  2.0822486783782481  3.1290604789968177 11.6947886736031155
  0.3780193748027363  6.2516264603587706 11.7059050410333505
  7.3348254150400916  0.0243843254915708 11.6921652223347188
  5.6355441570059268  3.1356738394355532 11.6972263796345999
  3.9323312608142538  6.2529157747926005 11.6924012792898342
  2.4511573509838378  0.5600555496734562 18.9959265641650568
  0.7501755668530476  3.6664815228556997 18.9983402269176338
 -0.9528637385008873  6.7788083177620839 18.9975172601266458
  6.0158522595936281  0.5603153675403992 18.9913048278464345
  4.3044049157929933  3.6722341675426105 18.9985847554978591
  2.6029511444260245  6.7763895762863049 18.9954963071698018
  9.5681874874142547  0.5580921884840314 18.9952466363812000
  7.8667496740411513  3.6645633589009079 18.9934368200663108
  6.1567134344109249  6.7770658266007784 18.9958834907036405
