Te Mo 
 1.0000000000000000
    10.3701929720173371    0.0000000000000000    0.0000000000000000
    -5.2548679409526251    9.0967646409819274    0.0000000000000000
    -0.9602485349195092   -0.0999154219646836   29.7428538030412355
 Te  Mo 
  36  18
Cartesian
  1.0638132173492703  0.9485985857746952 20.1511548497009159
 -0.6878253755790482  3.9776570095501738 20.1497777984667579
 -2.4325083725720127  7.0073142367009771 20.1484564242880069
  4.5289876138388561  0.9382118034042418 20.1521142900598313
  2.7723866963658712  3.9757065976256238 20.1403383944512626
  1.0233643069552198  7.0082247485342544 20.1496464599470677
  7.9838979805708812  0.9421311541836828 20.1479964368995006
  6.2307499035184684  3.9759101689825251 20.1444555433688386
  4.4790980426519811  7.0109452933123766 20.1475001277524157
 -0.4258011704313650 -0.0425949352023631 13.1879255546290199
 -2.1742581439574038  2.9884389957866881 13.1860876261138440
 -3.9291358859389023  6.0189692545480789 13.1865391815323001
  3.0312689563010591 -0.0460985838024729 13.1876873905559968
  1.2746222823427820  2.9852550517902281 13.1840629668637064
 -0.4710489016668054  6.0252767261568883 13.1839063113230601
  6.4833870863458856 -0.0440498630720369 13.1926280115253665
  4.7382895657397066  2.9810554037082788 13.1899125889693032
  2.9888838478405062  6.0275302266335018 13.1878919878995156
  1.1859143458929071  0.9593277056680203 16.5499320298755634
 -0.5697739480740852  3.9853422182991483 16.5526188508158612
 -2.3206501334830905  7.0190915220577015 16.5580712592294326
  4.6404104709566845  0.9628886964473542 16.5585671846937537
  2.8941938996368721  3.9840365872187791 16.5483610358825786
  1.1449797945239266  7.0224999628871592 16.5517416534596187
  8.0996421018253617  0.9486630753751194 16.5586804209546834
  6.3478389714773193  3.9847346937879000 16.5548535505550518
  4.5987616921168266  7.0204246993589470 16.5533795062640330
 -0.3067767604930544 -0.0314861573593183  9.5895464198179550
 -2.0557405377414830  3.0045021042379747  9.5986157247872530
 -3.8108443517075985  6.0344500140361417  9.5850754003296696
  3.1480153578460217 -0.0338707096404710  9.5899014818789503
  1.3931691062496301  3.0054699309786170  9.5926456069142922
 -0.3652083846333263  6.0330235497079725  9.5915306768196693
  6.5996010024372644 -0.0321824533564617  9.5923184993721247
  4.8546453476309210  2.9996032087648747  9.6016044781213470
  3.0994283520690420  6.0379704726454300  9.5985783657004777
 -0.5898146502914406 -0.0598054931868676 18.3520876456484636
 -2.3459110831103853  2.9709683174268720 18.3513902121454144
 -4.0958568374093938  6.0025497517443220 18.3526450905753755
  2.8598858644448732 -0.0631859672065836 18.3494632181207713
  1.1127664997629365  2.9708778457980802 18.3520673703176627
 -0.6354695141853276  6.0011977062521398 18.3516388929101808
  6.3129527086023218 -0.0652095358687051 18.3527459982487038
  4.5753388479976094  2.9721546620566315 18.3568422348161278
  2.8162707835144789  6.0049515773119397 18.3524522674855994
 -0.3878293474677150  1.9812935716106304 11.3906368796074595
 -2.1293852035713270  5.0195899429548616 11.3976893298538062
 -3.8929969518679548  8.0450458484294440 11.3889603898620031
  3.0732491774492279  1.9843072744018313 11.3918385036072909
  1.3235021924837040  5.0146434474295214 11.3906117896295775
 -0.4269751346189946  8.0485783459609799 11.3892281626132394
  6.5328639402619233  1.9795923566832530 11.3905608979870987
  4.7811687042485422  5.0151759181764382 11.3929701517687736
  3.0268003682805951  8.0495447761654138 11.3896643414737202
