Te Mo 
 1.0000000000000000
    10.2581039259805831    0.0000000000000000    0.0000000000000000
    -5.0932551493864953    8.9993009509998458    0.0000000000000000
     0.2196316779568195   -0.6200345028274807   30.6814532362513646
 Te  Mo 
  36  18
Cartesian
  1.8635029314847265  0.5765741805612011 20.9485163943347388
  0.1681663082086940  3.5785723354844956 20.9511877464716143
 -1.5309039413682874  6.5792880561394700 20.9488204807007392
  5.2828253273263970  0.5765509651828136 20.9488651684572815
  3.5875135711454105  3.5769764207507868 20.9577909355860115
  1.8868391646731451  6.5727822079626952 20.9472468116804151
  8.6976769437816319  0.5748977118795767 20.9518016727906264
  7.0005377297810130  3.5688492470476820 20.9515971596771386
  5.2999331439470430  6.5713078219772294 20.9452626106910387
  0.6729948100249725  0.7311787922296131 13.4504075981262616
 -1.0204010652312456  3.7216292953531100 13.4402311365336935
 -2.7257502001771545  6.7269580563362759 13.4433621465371296
  4.0803214493054059  0.7303146492742340 13.4417991998923227
  2.3915335740205812  3.7261585911845545 13.4393425739574219
  0.6918859602925718  6.7273152508087666 13.4411040184267829
  7.5086790090142461  0.7291342676208591 13.4429567286975740
  5.8106293476840252  3.7236893625343441 13.4428696879446825
  4.1169639970230598  6.7310825204307081 13.4449799572318369
  1.8412171028826090  0.6524764750362266 17.2403681023077056
  0.1397073224879901  3.6480020022532638 17.2372905288999227
 -1.5626234336322593  6.6501643252803140 17.2350333604796369
  5.2478630533611978  0.6498857621951666 17.2354991882309001
  3.5552279694398297  3.6480931849119966 17.2368247916995934
  1.8579723606803487  6.6559303095186433 17.2466982413588781
  8.6797272128016481  0.6530679555236477 17.2316819542796331
  6.9801342334364618  3.6549643193358237 17.2450443465222278
  5.2765691261901528  6.6430769664878531 17.2363412462289602
  0.6366319120780357  0.8001579204503529  9.7340463858105881
 -1.0525774449860947  3.7992138266569015  9.7290230255562733
 -2.7528193214472516  6.8043081940898285  9.7340560501946776
  4.0638490284078967  0.8012871543705878  9.7303348019934752
  2.3676381723630606  3.7987266191114939  9.7370176768761105
  0.6621295820007812  6.7968687168400521  9.7319545692633280
  7.4888576555955373  0.8062360530024650  9.7283127087895114
  5.7900753178553641  3.7967144775619879  9.7287650573955826
  4.0875982402322286  6.8017713508186457  9.7315870732123759
  0.1384053178928414 -0.3915925877546905 19.0878414978706878
 -1.5547120155377014  2.6156646174027349 19.0912930330926933
 -3.2603929801708871  5.6136602766657235 19.0949211374098766
  3.5521426682972517 -0.3835749695597283 19.0903558294664037
  1.8599795508467383  2.6090150790847435 19.0975751306960291
  0.1557892797240041  5.6179868345624993 19.0881079369369608
  6.9777156499278785 -0.3830394885323902 19.0869382310483466
  5.2711769285289733  2.6170165327046693 19.0988287911516217
  3.5798162277873087  5.6136391337798814 19.0946425278286398
  2.3587305863013319 -0.2301239813655474 11.5825553249227760
  0.6671975350009035  2.7661237090451483 11.5876439991948779
 -1.0309407593314948  5.7581788121724475 11.5879206933335173
  5.7822682252136941 -0.2342874308315853 11.5863502626594883
  4.0842271622971689  2.7685633667492073 11.5823759410797322
  2.3833156812764043  5.7662723253364723 11.5909818109028357
  9.2002632915681293 -0.2260987621079565 11.5922673991306961
  7.4960891861309262  2.7638208535569713 11.5807067488059872
  5.8057526247199807  5.7653713066797021 11.5868068065181973
