Te Mo 
 1.0000000000000000
    10.4318509777707060    0.0000000000000000    0.0000000000000000
    -4.9982798588875896    8.8989135935665384    0.0000000000000000
    -0.2204754037498380   -0.7488740559370307   30.2322952185968887
 Te  Mo 
  36  18
Cartesian
  1.6125592491822904  0.4761194016956136 20.6433931414065199
 -0.0551579442477755  3.4391908332633965 20.6459874496855278
 -1.7256088008474204  6.4083336506416444 20.6461439336656518
  5.0950795151174164  0.4785656394519297 20.6449301224924859
  3.4240484088242029  3.4467224388256961 20.6401322541526646
  1.7568164890681346  6.4097947863372315 20.6428368079002382
  8.5742724715965952  0.4774024303043561 20.6358361495409710
  6.9070701534276626  3.4447745621417094 20.6474783059067200
  5.2349825843594671  6.4092770505036842 20.6409635263470044
  1.0599053909124649 -0.3203690976887816 13.2427267187166340
 -0.6037429601295020  2.6380587015555097 13.2451929271172038
 -2.2696026834447416  5.6020952115722924 13.2487863720648740
  4.5377947419333173 -0.3276817366580293 13.2471412279530529
  2.8754306352214214  2.6409656857349106 13.2491063821541015
  1.2020680192598705  5.6046669935361617 13.2394315172267412
  8.0164989215437448 -0.3327916702615367 13.2483953872371654
  6.3504829027536065  2.6356516123256348 13.2469855104611867
  4.6843271051577240  5.6125843514257330 13.2405037965747816
  1.6395690544779555  0.5694339413249735 16.9889956800447415
 -0.0286485628478244  3.5331873167057384 16.9889646797388139
 -1.6938108308579973  6.4945493187431973 16.9883013087003256
  5.1166072213370342  0.5671182143040580 16.9885570411098676
  3.4512418025731639  3.5315051759218239 16.9853032844096425
  1.7831748971821917  6.4993897172744886 16.9867486635867309
  8.5948795394071453  0.5701373762497113 16.9892289570319370
  6.9267823518692362  3.5285131688212301 16.9828088278164344
  5.2618303966942666  6.5049558812739177 16.9927734965701127
  1.0892987237077119 -0.2376007879400153  9.5904473702470625
 -0.5710065415515090  2.7307519830439482  9.5874625885177664
 -2.2415987860614708  5.6895476022774689  9.5918778385345771
  4.5654288071967768 -0.2329187800184007  9.5960518645778610
  2.8986534511438005  2.7292134548927156  9.5888013933422620
  1.2346594977560983  5.6920903411286261  9.5873770958244204
  8.0436988381760361 -0.2374822090337358  9.5901386782857792
  6.3808867680298258  2.7238741714500279  9.5871180665191105
  4.7105141060703470  5.6940816814657342  9.5903619557736342
 -0.1372335150051992 -0.4661592967738081 18.8149274226165488
 -1.8029927871070814  2.4981146609997098 18.8160898261049709
 -3.4748419262042858  5.4701205030935265 18.8150415496335377
  3.3418511895909444 -0.4647734626613069 18.8216655279979612
  1.6672387230149992  2.5014568500535299 18.8128269525275655
  0.0095085374435873  5.4659590693692053 18.8158487575907252
  6.8209082724705130 -0.4651256806494515 18.8137549160572988
  5.1506213964771872  2.4963760546995646 18.8076613625827065
  3.4841348635242384  5.4682396118952497 18.8136236934493333
  1.1251633540325214  1.6989970484052415 11.4199169931180187
 -0.5465820664746043  4.6620061896145293 11.4138232233633587
 -2.2077156229020343  7.6243013889761269 11.4162069497374592
  4.5983374247245346  1.6950199922989333 11.4152113369122858
  2.9325666623964635  4.6550478537418813 11.4245726571270172
  1.2703911206384666  7.6241157751881206 11.4181479204042358
  8.0773374852907924  1.6930495494895659 11.4143024960169921
  6.4207488351727386  4.6614731107944376 11.4115641045564438
  4.7449012774812580  7.6291381160546541 11.4192711444813106
