Te Mo 
 1.0000000000000000
    10.2912468320335933    0.0000000000000000    0.0000000000000000
    -5.4244587347444497    9.2124958314400214    0.0000000000000000
     0.6655790091922701   -0.6710838118380005   30.5615994754299756
 Te  Mo 
  36  18
Cartesian
  0.1555063308088417  1.8276472144816944  9.7972545383356842
 -1.6581153914489424  4.9025811046580294  9.7994183769010608
 -3.4642362188420206  7.9801700505150182  9.8035214567057132
  3.5832880624091241  1.8307781585803860  9.8010003912342025
  1.7775534488084708  4.9007056593733278  9.8075110936259478
 -0.0395165431202829  7.9774019799939992  9.7963319905532149
  7.0149388845732386  1.8370724622265984  9.8054089355714567
  5.2051880116279392  4.9004522453281956  9.7988798315269356
  3.4012047346370315  7.9713499825546075  9.7941710836929268
  1.7552024239382122  1.1655252320395439 17.0685885299653641
 -0.0563602477816610  4.2332383840015790 17.0689777963156750
 -1.8581601816214806  7.3025237949454969 17.0715299866214743
  5.1859383711063689  1.1654378472844797 17.0636601282395119
  3.3830630731863756  4.2354021857544506 17.0665187431732797
  1.5634751678955376  7.3005804569871184 17.0697724240850448
  8.6228208843941836  1.1655284743058765 17.0641608778267972
  6.8080465315640071  4.2305576302971231 17.0681672563383522
  4.9927376173779843  7.3014909469097775 17.0735620950513045
  0.2390876618885854  1.7458805796165504 13.4900388454358957
 -1.5813534159592697  4.8198968942753648 13.4995987606488281
 -3.3840393726219280  7.8924087805201157 13.4948277288046263
  3.6643122040648417  1.7451610707663692 13.4929401958095010
  1.8532803214901419  4.8228826905416113 13.4937235713132999
  0.0453996831189566  7.8916280123684963 13.4925631471705145
  7.0924706154107255  1.7514573600062007 13.4933729573359926
  5.2816314354629368  4.8144064320916131 13.4897166595227418
  3.4784166473256715  7.8921639049948160 13.4953770426389195
  1.8356106095405396  1.0802135455960999 20.7616569396168344
  0.0260285920312731  4.1536247813520770 20.7632871893125710
 -1.7813322500886410  7.2205972829030269 20.7615045660032926
  5.2649173303775347  1.0854704920943090 20.7558724727050823
  3.4543763338538835  4.1510626092902863 20.7566434983890389
  1.6414877891703639  7.2243986446031307 20.7615818593377881
  8.6999952050519198  1.0719626371510997 20.7620947530990030
  6.8937404652700041  4.1574023865786272 20.7603634413916822
  5.0796350522348561  7.2195697980845237 20.7627428181753331
  0.2505637980836070 -0.2588514746414425 11.6448360129217399
 -1.5528359340162501  2.8131353602205706 11.6479139567679830
 -3.3625839088750804  5.8859239620775767 11.6475545039749058
  3.6775744729913735 -0.2514651632368353 11.6421975457236861
  1.8688994239333541  2.8144836003392362 11.6412304569493230
  0.0635878944561701  5.8918013605729804 11.6432077562469658
  7.1125690964840560 -0.2524263223361655 11.6470276197295100
  5.3135791015950673  2.8126444197734446 11.6502390184781088
  3.4972857730510989  5.8873196541876718 11.6488757402244065
  0.0502209410370431  2.1438190242508282 18.9169634024889461
 -1.7563172852683329  5.2103197118274522 18.9190481167396278
 -3.5601051639666679  8.2895074114384233 18.9105874526410069
  3.4780299889035193  2.1398095408020348 18.9102581854884768
  1.6757281596328826  5.2202272208682050 18.9091418017067454
 -0.1415449680087160  8.2860753584280271 18.9113924173954686
  6.9072287362155063  2.1485230740794004 18.9182466557565157
  5.0992763231796276  5.2164767441798965 18.9233638668588888
  3.2983262278136647  8.2921417104077886 18.9160239899812375
