Te Mo 
 1.0000000000000000
    10.4388673195998258    0.0000000000000000    0.0000000000000000
    -5.2508317387294579    8.9643181572483268    0.0000000000000000
     0.2576677202735296   -0.8709461057497357   29.5668443425622129
 Te  Mo 
  36  18
Cartesian
  1.9135389239041396  0.3965062556443869 20.1867615926203463
  0.1625776325098096  3.3893934461795441 20.1868399887613705
 -1.5971621527721143  6.3764942316102973 20.1834395462385210
  5.3913185823850478  0.4002125448216710 20.1873380317570081
  3.6348489377884960  3.3853276775101526 20.1822144096406468
  1.8855086776802694  6.3755612505932548 20.1924941460690377
  8.8689587257858999  0.4036041280600930 20.1835560020645595
  7.1219498150289038  3.3887382934420036 20.1890787853217546
  5.3710496709858360  6.3776192730900174 20.1879234808507775
 -0.4699314111692135  0.6195249021594943 12.9543409063906534
 -2.2215665000701663  3.5974328615741800 12.9581187777499771
 -3.9697441228005670  6.5855687250999715 12.9463347053239222
  3.0091217033352256  0.6144411676364688 12.9533300534997515
  1.2586984341270802  3.6024913426380381 12.9533550556647459
 -0.4931863568926363  6.5936069672071635 12.9500298757585846
  6.4870789024208371  0.6110597346830662 12.9573363302385474
  4.7332940592034785  3.6013525092653644 12.9550176057969804
  2.9899219835453712  6.5821287255894987 12.9550705504599080
  1.8775671751572263  0.5004842109658150 16.6193646510011668
  0.1296323912044743  3.4970197899059459 16.6124062834200004
 -1.6191784890661702  6.4799143886640813 16.6084744647573395
  5.3627639506532567  0.4990356698249584 16.6134715931541841
  3.6040209028981764  3.4940579361876689 16.6101654519767550
  1.8603847126415822  6.4827714639457801 16.6107923628928269
  8.8434272178929323  0.5125628613387100 16.6074580598096659
  7.0845207877672909  3.4981927242179540 16.6168027636109201
  5.3385224761184213  6.4850964425954967 16.6186692378581071
 -0.5017506430336155  0.7157464406588537  9.3817299220126493
 -2.2488969069048239  3.7023465456103941  9.3785023744791669
 -4.0011226003338081  6.6957676888576891  9.3777102283484233
  2.9781550191346815  0.7134806296552340  9.3730586588782536
  1.2216447264595167  3.7130156913153294  9.3769870074258517
 -0.5225086548705360  6.6956258225862761  9.3806297311775122
  6.4575385476907083  0.7198378803916803  9.3795902134016753
  4.7057598073490698  3.7125836266918864  9.3828719689834141
  2.9563449720058617  6.6949944492946214  9.3798634967770855
  0.1606690933931767 -0.5421878083094172 18.4007006434488396
 -1.5870799435775658  2.4461782802776786 18.4033812911167587
 -3.3384825002793135  5.4268005090881699 18.4041900294235887
  3.6323383487818273 -0.5374015568634348 18.3984901754647190
  1.8888411631658049  2.4508328378241182 18.3967026922241494
  0.1412107677843169  5.4309215110185951 18.3993657216197022
  7.1245772404197165 -0.5422206544864139 18.3924718299043981
  5.3692381586648308  2.4465093107362827 18.4011765349894603
  3.6217618652145203  5.4407256191145912 18.3966916899030508
  1.2571946624207733 -0.3292790088752819 11.1656728400652216
 -0.4923936434399611  2.6602940710292358 11.1660445165829767
 -2.2417166429573299  5.6439081965781979 11.1690192266403390
  4.7368128460386787 -0.3288198920474539 11.1659388172363716
  2.9865075034971387  2.6624459728136509 11.1645182182919260
  1.2362995909377481  5.6473927968732900 11.1657911018627765
  8.2155046105099867 -0.3334778958996784 11.1609940167269048
  6.4706281812086592  2.6627655329144941 11.1712632113605661
  4.7190477596420743  5.6446319203837882 11.1607070071355139
