Te Mo 
 1.0000000000000000
    10.3476818418084697    0.0000000000000000    0.0000000000000000
    -5.1342597555885368    9.2969383434030934    0.0000000000000000
    -0.5990955303066942    0.7451579481562893   30.6934814468781738
 Te  Mo 
  36  18
Cartesian
 -0.1852374524499055  2.3034111049771440  9.8442701081798543
 -1.8950992516472400  5.4043332401224848  9.8423896413450613
 -3.6057337689579123  8.5039442458679098  9.8437781865497129
  3.2661325945584267  2.3109667106700273  9.8403047232594965
  1.5586179080005895  5.4021920069673515  9.8468684126510944
 -0.1570013953732922  8.5055777580252965  9.8406226424601506
  6.7096128163229380  2.3072581611783241  9.8388940352943930
  5.0035682539640103  5.4081348829670741  9.8457252839169058
  3.2918210910413097  8.5031483899109350  9.8419394167074952
 -0.6124476000521811  0.9284214163862888 17.1403369196405215
 -2.3227322726437474  4.0332845690870593 17.1367668224235850
 -4.0429505676915021  7.1296076687402286 17.1409993734371824
  2.8298536642885570  0.9331912195173608 17.1388931673709557
  1.1150561237989056  4.0319959710000584 17.1445200278533427
 -0.6000255879438247  7.1357638975752016 17.1394921124550308
  6.2778599572306861  0.9264276326043837 17.1398381543533418
  4.5658869953065082  4.0302963003122851 17.1422164778641353
  2.8527553194983457  7.1233428921636150 17.1410143617314752
 -0.2515179244999268  2.4023044725360876 13.5560862162895877
 -1.9671244995381534  5.4935734830793264 13.5514972300641521
 -3.6764265104130391  8.5918402411504697 13.5521625849282277
  3.1970489780402205  2.3986467048672733 13.5449021536840224
  1.4888417240338887  5.4922191941919305 13.5512145311669343
 -0.2330983689229040  8.5929413032041424 13.5541600567455678
  6.6416649319949617  2.3937324432794864 13.5573728613111530
  4.9314598397962710  5.4941554484504111 13.5524167179345625
  3.2157690079700743  8.5921200302294167 13.5488699894157527
 -0.6940549711373061  1.0204824321213901 20.8514415118041718
 -2.3983931976612860  4.1229759494408951 20.8587438847641984
 -4.1176976578479367  7.2153536512159429 20.8490972475688316
  2.7601654082458884  1.0261366852267566 20.8515543438689761
  1.0449912184329462  4.1195799631499312 20.8508747325380241
 -0.6704025127973841  7.2270740359072123 20.8524556948700486
  6.2080701966915131  1.0225650252513125 20.8486372773848991
  4.4936451394598684  4.1237310615517790 20.8458289847312592
  2.7811079440621156  7.2211718238760634 20.8473836450333039
 -0.2338104312755188  0.2872776819193847 11.6975010483880801
 -1.9391061748625493  3.3803499765352205 11.6951685379628358
 -3.6506865390461165  6.4817939659013692 11.6962436641948724
  3.2169749560961405  0.2904466839514416 11.7014864589623819
  1.5034809608537192  3.3785366229660894 11.6932134450797918
 -0.2006042237143247  6.4807321067384596 11.6949804401502817
  6.6702110039481619  0.2841097970358700 11.6964380040203384
  4.9642625745548719  3.3909881774013675 11.6956956919230173
  3.2427173930447579  6.4873634664523712 11.6963874225735918
  1.0712867154724317  2.0087119662874535 18.9977996942180241
 -0.6464856595365465  5.1145072780716081 18.9937567405369521
 -2.3497875435204603  8.2123105143488413 18.9920964108293440
  4.5276299049193254  2.0131374582712942 18.9993351372554287
  2.8111679205795177  5.1096600279495359 18.9968471456715804
  1.1008695620058866  8.2061898583714132 18.9974433946030032
  7.9713625220715496  2.0107627947796964 18.9959419375569425
  6.2601270693906494  5.1144619268391045 18.9948184321568903
  4.5507577042173510  8.2148245370561224 18.9904211628390840
