Te Mo 
 1.0000000000000000
    10.4817156225190633    0.0000000000000000    0.0000000000000000
    -4.8276961696198271    9.2666913184091904    0.0000000000000000
    -0.2146351843727586   -0.7765799697405090   29.1957594616189624
 Te  Mo 
  36  18
Cartesian
  1.6422043421564476  0.4984601224649493 19.9328174262881817
  0.0335929975360172  3.5897493370241991 19.9410593854068132
 -1.5717112531972071  6.6732520896518333 19.9333647078461134
  5.1401874480738714  0.4992984963220644 19.9326938258358695
  3.5354682656318750  3.5916916842364901 19.9277601763738481
  1.9207286038507507  6.6838855457738999 19.9310583305498632
  8.6349085452560086  0.4979129717260522 19.9313503511147623
  7.0268315549292888  3.5827110478195072 19.9354456711045138
  5.4158469324075753  6.6762465857574993 19.9345105465316870
  2.2383582064245680 -0.3380802658944356 12.7927838574701909
  0.6325733331658048  2.7535407256513484 12.7928147488711126
 -0.9832722674003634  5.8381226909399127 12.7913769280531469
  5.7313105243942619 -0.3401450956378900 12.7870691322571393
  4.1167381381524990  2.7542271457733563 12.7960530615319090
  2.5071129870885267  5.8378234937012694 12.7914749631941689
  9.2197182541778275 -0.3365805528062988 12.7888885678705062
  7.6128323819169941  2.7549570886167478 12.7879194715669193
  6.0054052102474751  5.8354725504836962 12.7890444656478977
  1.6729278703762651  0.5931770417316786 16.4046652326241471
  0.0590699411705875  3.6850578416232120 16.4091726147889645
 -1.5478817564581473  6.7726896682423794 16.4069404957311917
  5.1666671105223223  0.5927982725202605 16.4025794586429576
  3.5567645148408795  3.6853341890713112 16.4047363361338938
  1.9462004174783085  6.7702502527485793 16.4044980275083638
  8.6574488269999250  0.5925975572037471 16.4071218356382289
  7.0429786994882244  3.6797820696151651 16.3997685771529369
  5.4404119492098966  6.7759162310496874 16.4023750591989064
  2.2605240332032208 -0.2465477085701312  9.2643003713165957
  0.6526183123865267  2.8482317045845678  9.2560170861304165
 -0.9566468478887736  5.9372228555132960  9.2562826589527933
  5.7522969437315634 -0.2447476353004091  9.2640411337529081
  4.1470538161203194  2.8419185142687264  9.2611024269803242
  2.5359660965745832  5.9279011790754996  9.2647932004499580
  9.2513346491707775 -0.2455784459456721  9.2593555794746294
  7.6407882335476422  2.8418554551325124  9.2623333444613394
  6.0279598292717314  5.9298122489976226  9.2661332362498392
 -0.1306876117568036 -0.4822662516899267 18.1684522538696669
 -1.7421880022665168  2.6031196389493441 18.1709035897376410
 -3.3527345378475708  5.6909771991246725 18.1782910114244523
  3.3600917539503445 -0.4788993074300632 18.1641741842173126
  1.7479754109971386  2.6097088487161586 18.1746902775543759
  0.1441185355311745  5.6895656932247753 18.1767477197987866
  6.8546339151057474 -0.4853269061317118 18.1714200299260504
  5.2450181569431678  2.6064165402311308 18.1695924463964396
  3.6345505659569457  5.6938884730799533 18.1654382737614490
 -1.1563720411029834  1.7681804356769755 11.0255255077246765
 -2.7607500899305939  4.8549075925496821 11.0261568309528837
 -4.3757358516771490  7.9449057406994070 11.0280791408987451
  2.3403903163470328  1.7684418280918994 11.0251089352820575
  0.7289188788449632  4.8526382176598855 11.0257829948074217
 -0.8802604717792957  7.9505407011934874 11.0233053123561948
  5.8291163172576068  1.7653628507385384 11.0260670077770371
  4.2229499804464430  4.8549334661658596 11.0272069560311543
  2.6163088236253844  7.9460568825289704 11.0214837580142060
