Te Mo 
 1.0000000000000000
    10.5147106679342883    0.0000000000000000    0.0000000000000000
    -5.1554871302579697    8.9307017665729926    0.0000000000000000
    -0.6660386321442457    0.1252788218823799   29.9199255820111460
 Te  Mo 
  36  18
Cartesian
 -0.1929865261689082  2.0221056937280246  9.5902461472986431
 -1.9111775754430431  5.0067934817261994  9.6000260692447696
 -3.6292904861411110  7.9784140994701191  9.5920396755366806
  3.3054258875517135  2.0250087787861455  9.5989527538587609
  1.5982036427347750  5.0026153098932111  9.5990731217834124
 -0.1241440956039358  7.9788307202132334  9.5935232510720123
  6.8162232150077200  2.0257040501972727  9.5923531005608940
  5.1002765209056546  5.0020171881771738  9.5948836546818921
  3.3814484317319131  7.9789087320996908  9.5946623809010898
  1.1059245327825307  1.5593027310694825 16.7085057937093033
 -0.6090207463389534  4.5364049063368990 16.7079535414336000
 -2.3327469572562718  7.5103267975596077 16.7104130613262356
  4.6106949894994864  1.5585209177192221 16.7076151266122572
  2.8954391817557199  4.5402393239359826 16.7054509464466214
  1.1767939902542972  7.5145160719715118 16.7107792433553541
  8.1105707598697876  1.5623367228314340 16.7063238109967642
  6.3969762855377867  4.5352640825180224 16.7091689819143987
  4.6804961776018645  7.5132487652483135 16.7090617282898108
 -0.2680425140013512  2.0373093920883587 13.2160947186421271
 -1.9938769096392881  5.0116192542969786 13.2032548724213346
 -3.7087623434995689  7.9940492675460550 13.2116551954365722
  3.2410047208586978  2.0391707094319460 13.2154233181475718
  1.5106243848494745  5.0203092827981761 13.2109972245760598
 -0.2000396231671216  7.9858795573428267 13.2144406402920893
  6.7420573742581933  2.0399116334201293 13.2018030718573272
  5.0159139205218732  5.0152065023690460 13.2153112334984932
  3.2966378455292875  7.9929506625008022 13.2120841494540944
  1.0307720069174766  1.5777183505072665 20.3190525722459547
 -0.6898460182178592  4.5532848967044712 20.3265862029984312
 -2.4193420316857712  7.5317708191520376 20.3266337848846419
  4.5236605110445600  1.5705373012757280 20.3308975133635563
  2.8141699916016303  4.5429747314065896 20.3298566444263926
  1.0949332836417014  7.5351259483284920 20.3266340043273210
  8.0368349929463339  1.5741135095385030 20.3231333598007495
  6.3161516934175763  4.5504319570088922 20.3253323672506063
  4.5971778493493423  7.5276208472864328 20.3243930969223179
 -0.2506987069954819  0.0421487093474144 11.4091102818311150
 -1.9734453698500953  3.0216751661263621 11.4024386497239867
 -3.6897619469322889  6.0020165567285000 11.4062619533556600
  3.2474864547232185  0.0534572687671095 11.4086248828709742
  1.5342904010479284  3.0220497315040236 11.3963197600967270
 -0.1844760067315810  5.9994300919936494 11.4054653914325534
  6.7629798194570592  0.0449201904627584 11.4023893272271089
  5.0450414237146077  3.0231982508166255 11.4065508590902027
  3.3212260442447943  5.9977019455875951 11.4084262789495394
 -0.6741416090214367  2.5568617127687645 18.5192697299868385
 -2.3881528552875584  5.5347265260841674 18.5120882124257058
 -4.1125235002873257  8.5127876489353511 18.5181462359095299
  2.8342519935083357  2.5652775590090480 18.5174300812126198
  1.1151021320080925  5.5396310555944268 18.5110598937751050
 -0.6105313627785108  8.5136283782610711 18.5177951389057149
  6.3345657251108660  2.5582733586401742 18.5161149412098176
  4.6165953413818270  5.5349023738877641 18.5168693694690951
  2.8934088171923102  8.5068836968482735 18.5194217138664357
