Te Mo 
 1.0000000000000000
    10.5446251733689760    0.0000000000000000    0.0000000000000000
    -5.3998406405283745    9.3202023941661913    0.0000000000000000
     0.1771889886331122    0.9038125437087302   29.1218181182486617
 Te  Mo 
  36  18
Cartesian
  1.8635149776656850  1.6514215687209555 19.8863353550597814
  0.0628622634633842  4.7661768596349283 19.8776235599403392
 -1.7357645947997014  7.8662886641272163 19.8840649992742762
  5.3861491675179582  1.6476255195383684 19.8817660392441979
  3.5819276742076278  4.7545703681311426 19.8890053029484015
  1.7851454516599934  7.8703105691838804 19.8898094597102606
  8.8906610168147431  1.6536810839377949 19.8795946417258378
  7.1003054951218196  4.7553655677238496 19.8820502517795354
  5.2944524853755794  7.8685465743289020 19.8858320082866982
  0.6519491326995631  1.4333136702064846 12.7531477483855156
 -1.1506916101682358  4.5384784707988679 12.7583156920635989
 -2.9537974738386512  7.6442676815003026 12.7557512446713250
  4.1592983276678526  1.4323796274138960 12.7613308258169891
  2.3652655597561236  4.5398622528628181 12.7528190600849385
  0.5643042380216928  7.6442023513036643 12.7584865232413929
  7.6819472703065674  1.4324775793887166 12.7603617559832614
  5.8801580823616728  4.5355081315218593 12.7549332896152023
  4.0804168029438364  7.6407843088513339 12.7638992472930095
  1.8439572601113807  1.5375768332605981 16.3659820674871881
  0.0450059621604677  4.6479060101831307 16.3579319294053462
 -1.7589707333844222  7.7604005827595213 16.3608620144267576
  5.3575967821065067  1.5360714269067743 16.3691701077317369
  3.5592587177801218  4.6434518638356588 16.3618959988306045
  1.7518173974267208  7.7544486877694077 16.3586733020305957
  8.8718895840921697  1.5397630965210338 16.3663604947166945
  7.0726056577469674  4.6492098410185996 16.3591889147777536
  5.2731284762951045  7.7554789170051199 16.3640455024945055
  0.6257465514101656  1.3197807077888501  9.2355123348994734
 -1.1714421974889397  4.4318099539250602  9.2356452692592192
 -2.9756464095137729  7.5356032158954127  9.2401397042948314
  4.1424356100654789  1.3202442991391576  9.2355787530749858
  2.3427198509712226  4.4277690700134498  9.2368533218120650
  0.5476717497120478  7.5306183365947046  9.2372122218128627
  7.6613955345399223  1.3206905690256323  9.2382232723284492
  5.8580757863115949  4.4283588136035652  9.2371059026846112
  4.0572236561837123  7.5347898996439646  9.2383105410553892
  0.1143578671158998  0.5570135916146008 18.1284328934236179
 -1.6922935671443331  3.6636971664920668 18.1197904230933169
 -3.4837018278615566  6.7761003134505478 18.1182102652595418
  3.6267427321300678  0.5624582182335043 18.1196274211266726
  1.8243176070753098  3.6691343355816897 18.1232007069528933
  0.0249070983065549  6.7757760017033686 18.1270837343756455
  7.1411040788287599  0.5599433606440342 18.1261294313141548
  5.3350641847177949  3.6673838315452576 18.1252558620491691
  3.5407524409430979  6.7682106166946463 18.1282381558389396
  2.4170622303440976  0.3374426694518947 10.9946898655359231
  0.6096861487124525  3.4423983398035394 10.9938096252303694
 -1.1850159552053490  6.5532693974303511 10.9985686886734193
  5.9297589320627084  0.3341498430128149 11.0011177368962016
  4.1277900455774335  3.4424657943433825 10.9951056368960298
  2.3253472879781150  6.5574603326703969 10.9928036616286651
  9.4423148460246455  0.3358495978700078 10.9993510035827775
  7.6434334442971670  3.4481962427041131 10.9996885277404761
  5.8409320148699608  6.5554505678839314 10.9953393821688987
