Te Mo 
 1.0000000000000000
    10.5938058400105390    0.0000000000000000    0.0000000000000000
    -5.2398399297301026    9.2338974164326029    0.0000000000000000
    -0.1917005957396739   -0.3872510617305279   30.0295797722334150
 Te  Mo 
  36  18
Cartesian
 -0.0471322842028767  1.9264480153686994  9.6395302163730321
 -1.7963721035399580  5.0045219041268911  9.6305667230155265
 -3.5440691475072867  8.0781696280191095  9.6262927402905394
  3.4833566970732495  1.9279110588514592  9.6306972737083854
  1.7346309953860186  5.0041040936663519  9.6304858544067393
 -0.0057249386221136  8.0883116338721290  9.6262806761179665
  7.0136394688777459  1.9273989869063484  9.6302180900799392
  5.2645149468011700  5.0098505538330977  9.6273531615297578
  3.5174232528637779  8.0807197013307377  9.6344893153700379
  1.3729054035720587  1.3241749499042073 16.7693729936322597
 -0.3787986185073510  4.3959940412402982 16.7691092401371584
 -2.1203189431226703  7.4745020052334938 16.7715941769147250
  4.9039741106339463  1.3206232179240407 16.7683358028732705
  3.1589740573040332  4.4002522214822415 16.7703074006130564
  1.4057060131779371  7.4814448170908756 16.7644212906497430
  8.4382513188091277  1.3237824652205941 16.7672887944185263
  6.6880733369485625  4.3999088581716093 16.7714568433968054
  4.9458571006429217  7.4768596427496847 16.7675653341382542
 -0.0788797747461120  1.8830219875479983 13.2530081834105520
 -1.8214029483748075  4.9580045253383478 13.2611519924269405
 -3.5639487650454833  8.0353999155705917 13.2610425619601653
  3.4544355326898812  1.8790783674064064 13.2599897927567216
  1.7071560016790055  4.9622511192741161 13.2528158742034190
 -0.0394646113706564  8.0390842722692799 13.2526650574132514
  6.9823480690315574  1.8768070052349133 13.2585919023978818
  5.2476446033156030  4.9605011159525860 13.2589983485232867
  3.4968088155939494  8.0372075241667407 13.2583033101036616
  1.3517639857884154  1.2764460503792867 20.3984678608374281
 -0.3888543000763975  4.3597196588046181 20.3965729374569378
 -2.1402872489118994  7.4317253394453919 20.3976305803245097
  4.8833467340865120  1.2750986822064261 20.3992198815876513
  3.1310500769629708  4.3484231625700431 20.4033774870553906
  1.3837626792968791  7.4254820920983766 20.4044786291238758
  8.4112304886124445  1.2778575753802364 20.3994869851862752
  6.6669081105785750  4.3545468957149360 20.3992742362446116
  4.9256140387957634  7.4267201746719333 20.3946244709481981
 -0.0730559939799150 -0.1471850152932638 11.4381255930194907
 -1.8196595131396791  2.9303882989128844 11.4450136017439679
 -3.5720749524445252  6.0090708511164301 11.4485761025630630
  3.4624644040013393 -0.1448648054797519 11.4475377781383401
  1.7065210457632833  2.9274591953405547 11.4494461071268390
 -0.0366253333953340  6.0093221895110061 11.4480682097797839
  6.9901481608184914 -0.1460917671807353 11.4435732314808138
  5.2432200479650550  2.9306451433055929 11.4448079623236296
  3.4925355123118309  6.0073690751694322 11.4415663971738297
 -0.3988750841431745  2.3264965556931969 18.5844282267950618
 -2.1426472789424467  5.4033765818405008 18.5845734942436351
 -3.8910279916608146  8.4808202144122760 18.5844554980373999
  3.1329003568517764  2.3270126548060981 18.5857628261650589
  1.3853242852144827  5.4043518117636440 18.5831952511492240
 -0.3580633310268500  8.4871551333562305 18.5885151553302066
  6.6691870677819622  2.3289139420385139 18.5796649079784721
  4.9208263080787953  5.4047714729092160 18.5822124903303241
  3.1735084979250789  8.4773914100175851 18.5866301174881166
