Te Mo 
 1.0000000000000000
    10.8159959209202974    0.0000000000000000    0.0000000000000000
    -5.5091415971102187    9.3936392141510723    0.0000000000000000
     0.1393690689344586   -0.6465090616794307   29.3033357350633494
 Te  Mo 
  36  18
Cartesian
  1.8867840132907983  0.6054251351792378 19.8510534078380267
  0.0483969789996604  3.7393738349360790 19.8513824531488687
 -1.7887955018981385  6.8672932838782828 19.8584631512106213
  5.4860439760702802  0.6012446622302828 19.8558148221776918
  3.6545292024567435  3.7367267179992916 19.8512898943580183
  1.8253149166150175  6.8714209421023043 19.8451076831544491
  9.0959378291893920  0.6050860564086318 19.8511879051530009
  7.2610494725428323  3.7339313744897940 19.8524107000420251
  5.4293640732553552  6.8730130065276525 19.8564741412852221
  0.0590816131588815 -0.2876012704675546 12.9945124702738646
 -1.7776528181308495  2.8488254154823198 12.9923821858829101
 -3.6087360508607254  5.9697806891864262 12.9885851877500400
  3.6679849353162868 -0.2862154010812380 12.9917567283650897
  1.8289908341753203  2.8445356949676261 12.9916145447877458
 -0.0090529650990956  5.9819925015496631 12.9983986880840234
  7.2684066044332223 -0.2837962482271215 12.9986473416271355
  5.4364089677142751  2.8535134720054920 12.9947540791145837
  3.5977561800609754  5.9740351585159406 12.9888558678732107
  1.8705827665826376  0.6815385199005773 16.3135276048226707
  0.0280959620455081  3.8168178957077679 16.3154563377645943
 -1.8017459841462478  6.9428057129431338 16.3091950027119346
  5.4753050801694414  0.6885935731839414 16.3096007930627707
  3.6384279329967573  3.8154822350985405 16.3098600354220125
  1.8003115809971413  6.9422718335431517 16.3166490992334552
  9.0772051854442495  0.6831749993797096 16.3077588516655503
  7.2461144551384411  3.8174786398826388 16.3095845787968976
  5.4083275854610182  6.9483937725416887 16.3120720285978749
  0.0467153061007029 -0.2136209397978241  9.4473705199991436
 -1.7842903812945665  2.9223787685594105  9.4565118844915563
 -3.6230115238200282  6.0571525071037007  9.4560650932348906
  3.6532417687146341 -0.2023123234574194  9.4557808311918574
  1.8057602338644267  2.9208898364252707  9.4461050962896547
 -0.0239239818407217  6.0521318355056293  9.4496969744478694
  7.2560483025644675 -0.2065228641484531  9.4498597667364415
  5.4174187055863081  2.9228181978109986  9.4510089379815874
  3.5836362777268747  6.0469719727197644  9.4569811662861287
  0.0833306868659018 -0.3951991518618546 18.0786926815404030
 -1.7496650011117625  2.7282829742713299 18.0759287565579214
 -3.5856902617090776  5.8624064817337960 18.0809344612832881
  3.6878892839781630 -0.3990020421028293 18.0806315997544367
  1.8572802103693122  2.7383351666841014 18.0800249812157290
  0.0181927937392531  5.8650173433552659 18.0802358462936468
  7.2965213599911465 -0.3989509469797076 18.0817004548691429
  5.4613446981023266  2.7321445635383830 18.0805382807236690
  3.6211920484455100  5.8626166488041651 18.0753476068721923
  0.0318295543862116  1.8401946620478116 11.2229791422827549
 -1.8054740113007399  4.9678912910240927 11.2213585244740930
 -3.6434947279617975  8.1015413277555393 11.2235240816385584
  3.6354328865861167  1.8379793853908120 11.2258272797039673
  1.7917156310046647  4.9741691724995931 11.2193111904271241
 -0.0385635970557509  8.0978754118141847 11.2214379484019595
  7.2438354286175013  1.8405028512219428 11.2206347772720640
  5.4014329890246877  4.9691583723798054 11.2173195931506111
  3.5716114480285155  8.0993345043201739 11.2280628933119004
