Te Mo 
 1.0000000000000000
    10.6390499260739144    0.0000000000000000    0.0000000000000000
    -5.0171431470202172    9.2860329187179129    0.0000000000000000
    -0.1265057877920481    0.6564666401674226   29.3760109323766123
 Te  Mo 
  36  18
Cartesian
  1.7134171747123421  1.4791683084983673 19.8995500776335810
  0.0443938001112194  4.5728534040282698 19.8973611385256071
 -1.6236433260111962  7.6677685332806131 19.8999820163430563
  5.2640361367790725  1.4772141484509735 19.9078681950080529
  3.5947049785031182  4.5682850956153533 19.9003631851679224
  1.9274906474484728  7.6640711991282675 19.9027192152908867
  8.8165257222353848  1.4759977829435240 19.8992860650129302
  7.1442992405797181  4.5744508430000481 19.9070668306077572
  5.4720736078024315  7.6680296669577865 19.8996459168603934
 -0.0529351068551476  0.2918837049322766 13.0217321047936849
 -1.7205019125306020  3.3900550553118634 13.0262015237466322
 -3.4066329998769365  6.4766770800111830 13.0257007297221943
  3.4911466398233664  0.2955601762660071 13.0243488604279456
  1.8180493827079232  3.3866163079844234 13.0245720188503853
  0.1454092286224862  6.4818676970270239 13.0245417533318335
  7.0289665642433681  0.2902222140722751 13.0211046553308361
  5.3636269361506672  3.3851437965476223 13.0236839660774049
  3.6924851776474914  6.4846151129921825 13.0221008756074639
  1.7344866241495700  1.4029431068996578 16.3584282094584061
  0.0628887023239894  4.4949717776730864 16.3510563802382123
 -1.6031300206421610  7.5891325175995004 16.3424700991134593
  5.2825819145711925  1.3990447851420456 16.3489506344024669
  3.6091218660376159  4.4930733737018196 16.3501189829837443
  1.9422792426427253  7.5907038059263305 16.3441531608508335
  8.8289566066666048  1.3943669503951666 16.3508649795275538
  7.1536245515236105  4.4931549188448026 16.3448324996957020
  5.4862945469290212  7.5890468337023416 16.3527655210039384
 -0.0384329558634306  0.2108590469065258  9.4772931354022028
 -1.7143358339243813  3.3060387528631727  9.4734596600938534
 -3.3872380343432833  6.4019976163447581  9.4754086372825146
  3.5045098545080879  0.2119432271653258  9.4744813471334783
  1.8363523390622609  3.3060533025159358  9.4724900762627406
  0.1552160448878914  6.3993847416353029  9.4769608096491620
  7.0505826570582180  0.2127098738901879  9.4760070794869247
  5.3745045169305463  3.3020023055833327  9.4690553339800640
  3.7065309187514863  6.4040021723318681  9.4775533699469747
 -0.0816785752542301  0.4018724424051789 18.1267880253578717
 -1.7503859598730533  3.5002023172739025 18.1266655029136352
 -3.4256739687398823  6.6023771139455496 18.1300860750181378
  3.4727775612087117  0.4098737397973057 18.1271796166099790
  1.7968063977620889  3.5014104175660883 18.1295959991507374
  0.1207882397482514  6.6015826597723137 18.1243562083721841
  7.0138578349274407  0.4087030066139972 18.1252638794300580
  5.3489884560367615  3.5012690495757610 18.1270794993857365
  3.6773685006985293  6.6014861518887749 18.1233441040080905
  0.0185498972095251  2.3183540136055631 11.2487464344924835
 -1.6532081426932252  5.4115565760333872 11.2532788723792390
 -3.3269852888327249  8.5088419824735162 11.2518533932548195
  3.5684675612141805  2.3147326701147395 11.2492089671553028
  1.8957448135579962  5.4101590205779315 11.2515565585916857
  0.2206338661741606  8.5035606884418264 11.2512344350491702
  7.1134314889798125  2.3147640495923842 11.2491494201898536
  5.4407370534308361  5.4115568233710185 11.2518514780876764
  3.7644268791115141  8.5056353006116954 11.2460165998324761
