Te Mo 
 1.0000000000000000
    10.6514479521325800    0.0000000000000000    0.0000000000000000
    -5.1502981054687567    9.1497231746073542    0.0000000000000000
     0.3289691872579559   -0.5359305983485617   30.1243129313233311
 Te  Mo 
  36  18
Cartesian
  2.0203731448066469  0.6473369767534225 20.5742168995955552
  0.3011346601694183  3.6978914869808022 20.5642168532355214
 -1.4151679064982574  6.7504580964492371 20.5691838673230087
  5.5680168782581623  0.6494031804552833 20.5719749595626027
  3.8528014777508348  3.7006312012921825 20.5678133920045703
  2.1306411234401983  6.7511150029890130 20.5727443724470369
  9.1216589137695667  0.6497986385572897 20.5694069550265688
  7.4032358092840509  3.7004369577484222 20.5680736989650370
  5.6867960627154330  6.7486358313672676 20.5658504538144307
  0.7525496947913989  0.7796399744231644 13.1915676126389023
 -0.9664943869813507  3.8333013499911885 13.2047050366235315
 -2.6786743029038571  6.8831272023130197 13.1980134212804270
  4.3066610787670108  0.7826696040551208 13.1968313547652798
  2.5874995353828916  3.8322833375046552 13.1982719049213593
  0.8759589721626647  6.8826394788237373 13.1994923518141558
  7.8554123004924845  0.7854522153753398 13.1984758285342423
  6.1399188837394032  3.8360342300898509 13.1988406104361253
  4.4260786388903908  6.8832731160702956 13.1978438288076401
  1.9771525693174699  0.7145368139697686 16.9242435641133859
  0.2643037366251687  3.7644770854088558 16.9268988048239386
 -1.4535521070124697  6.8122135707009646 16.9289260938783421
  5.5292244833518804  0.7099715743563199 16.9344209493179427
  3.8141563227188331  3.7647242988207656 16.9284981407711044
  2.0981934357137519  6.8215272728497380 16.9333793661600893
  9.0818204603059538  0.7176371467389014 16.9243321935450588
  7.3701593379220762  3.7646058344116002 16.9236321921834545
  5.6491296183116475  6.8145906450792539 16.9296265707348716
  0.7091434705534716  0.8522145229999298  9.5574914516557250
 -1.0006722663114538  3.8959052765355962  9.5565882019592365
 -2.7188650936368379  6.9430919947032583  9.5611208289132161
  4.2654046657384947  0.8451915756181204  9.5532143072068934
  2.5464833580460273  3.9030439841001057  9.5566403354602389
  0.8260608480646893  6.9458493863240767  9.5519571386446227
  7.8088021256203968  0.8443963443443040  9.5610622478410967
  6.1004932058915013  3.8929700677448529  9.5488534653557444
  4.3753721808999035  6.9415936456027776  9.5595614452545519
  0.2100130094327470 -0.3349279136792720 18.7423267166948797
 -1.5100349126783332  2.7170053419931639 18.7503140258243448
 -3.2327937870679286  5.7706760388209384 18.7423867164800662
  3.7550663745458124 -0.3320813932715476 18.7491109618572231
  2.0398714729029725  2.7148639659701383 18.7454185703566516
  0.3220675195962547  5.7665008239632076 18.7477555436521186
  7.3056870887072671 -0.3334622151419201 18.7441354395896447
  5.5900750835196291  2.7169604942915213 18.7472933286138677
  3.8737647137674491  5.7615323408430061 18.7501400739238449
  2.4947080389388878 -0.2024991163468526 11.3737692521924654
  0.7734647301271215  2.8525327081971619 11.3725780438689359
 -0.9429356061505737  5.8952834409600703 11.3683774390626535
  6.0467195884300180 -0.1983828449934943 11.3707084803099576
  4.3288891097127351  2.8513083579574539 11.3758813532953305
  2.6065621547548354  5.9051162734090248 11.3772817147973431
  9.5922893885122793 -0.1986890213992988 11.3798940081693907
  7.8756013222079639  2.8484745582002176 11.3717409942551182
  6.1617994667052765  5.8951961170155665 11.3730389995580818
