Te Mo 
 1.0000000000000000
    10.5194605043517022    0.0000000000000000    0.0000000000000000
    -5.2150410253981265    8.9527856519645237    0.0000000000000000
     0.7328747234669410    0.1056218655342570   29.8518010162340985
 Te  Mo 
  36  18
Cartesian
  0.2401681474152418  2.0270579654972276  9.3365626559327914
 -1.4939638295496784  5.0001708017664637  9.3363169586152406
 -3.2394904044427895  7.9926009515496501  9.3364194152595594
  3.7400427676908619  2.0186882963646049  9.3332727674714189
  2.0046855791150988  5.0047074213729150  9.3341128593192177
  0.2676225316083660  7.9871456632018010  9.3387933821030273
  7.2512114084917343  2.0186234164367405  9.3400803584598879
  5.5146482737178113  5.0076882611743363  9.3361351973160911
  3.7696221195735164  7.9866297262620369  9.3304439501805287
  0.1354809484177266  2.5476071596837020 16.9067939026948899
 -1.6015715444308691  5.5354130077942063 16.8992312574183003
 -3.3369990281009168  8.5166197728033470 16.9010386014507894
  3.6378171076860628  2.5492225454235742 16.9088139840861089
  1.9031244727152457  5.5297503508031891 16.9068603943651574
  0.1617513312353385  8.5111662687723157 16.9124719714278378
  7.1481784702293867  2.5467124600749576 16.9056236733446603
  5.4103658076593222  5.5376961143545111 16.9041691863698773
  3.6692499089732840  8.5125406689705567 16.9021468267295063
  0.3273662801524219  2.0357737209724891 12.9436107810724970
 -1.4038823095614374  5.0210593080965822 12.9476963875004607
 -3.1500979608771011  8.0045853449599509 12.9507587536502662
  3.8377401722623277  2.0326309299802445 12.9446221226475977
  2.0995469404289819  5.0148259847154595 12.9447660770232709
  0.3535207773736045  7.9986377372966118 12.9533787325497904
  7.3437846319252831  2.0332860425476906 12.9483340537288072
  5.6086991957513348  5.0141565326934527 12.9462016356635896
  3.8642917175020184  8.0031517161972943 12.9454713278541398
  0.2232503881445958  2.5604936375929852 20.5141732843646345
 -1.5109218645350388  5.5482183321930378 20.5074136924037056
 -3.2548702804722955  8.5309192064682300 20.5139198141778678
  3.7289752617407474  2.5574665017812936 20.5156581701382841
  1.9903728589109904  5.5490194624741562 20.5222659601770943
  0.2586846747421030  8.5246286843498620 20.5158644101089891
  7.2360659597108494  2.5673357572694080 20.5169198093701226
  5.5000686391278029  5.5470806500430490 20.5181537203402513
  3.7594354968160961  8.5281916052534736 20.5159958966451015
  0.2708486484308539  0.0431839534991774 11.1374392388003915
 -1.4728759758035732  3.0208105417986437 11.1370101948133762
 -3.1996187086362777  6.0115281566778398 11.1436932940978775
  3.7792559829538779  0.0405280541708800 11.1399153478544672
  2.0446709404283752  3.0299624429464189 11.1471615981398600
  0.3046630723060352  6.0064298338683972 11.1422836626422104
  7.2877998255201648  0.0359721794545395 11.1381509329789115
  5.5423285961162154  3.0247856005430815 11.1344684543363286
  3.8115735025725166  6.0122956418231288 11.1493946565025457
  0.1692801584578858  0.5645504082672074 18.7104992734223323
 -1.5720963297635822  3.5444968550896045 18.7088076620980743
 -3.3072206979961214  6.5317456317537914 18.7111928150023168
  3.6761862965309873  0.5636176971704018 18.7107633396874355
  1.9326570834504009  3.5459310495271676 18.7105967709214838
  0.1956507706276628  6.5322784686018469 18.7076348222872824
  7.1828934113207783  0.5671226739789493 18.7129806533452907
  5.4467692562801604  3.5446955796909396 18.7121400621255987
  3.7030295847303041  6.5317428401087136 18.7105230125532245
