Te Mo 
 1.0000000000000000
    10.7130145962697085    0.0000000000000000    0.0000000000000000
    -5.3229369866150540    9.3698607336928124    0.0000000000000000
    -0.4508436839907262    0.7138719834037449   29.6415360692483922
 Te  Mo 
  36  18
Cartesian
 -0.1397024618991823  2.3099841497027960  9.5081657972649349
 -1.9172073195814454  5.4349787509878240  9.5026403898206677
 -3.6893650059691696  8.5594690378116951  9.5072838444611012
  3.4368588035747387  2.3128332495225843  9.5009861369217425
  1.6622352066665045  5.4289502097345013  9.4996892574289014
 -0.1176241130500438  8.5565761883057156  9.5107457444107784
  7.0016746476900131  2.3119169410742839  9.5041869027490815
  5.2284673172783602  5.4386965348707879  9.5078297206094202
  3.4619373978362704  8.5537065063059998  9.5023854360147268
  1.2415234836247730  1.9610707297040191 16.5512396747670145
 -0.5313563647848411  5.0792970223730185 16.5571045415009586
 -2.3066906090527031  8.2055272119028881 16.5537830272182624
  4.8123922750905423  1.9629644807537345 16.5558257981273869
  3.0382857352734116  5.0840938211593869 16.5521372738837620
  1.2637472803143519  8.2058670452370297 16.5548937697495475
  8.3812210675495376  1.9628020700949114 16.5509872686895960
  6.6094630875599441  5.0835201978042290 16.5531179935716679
  4.8352006800568743  8.2081360963215992 16.5546131321750742
 -0.1899948496492527  2.4014121745112433 13.0830925302730794
 -1.9647798117509079  5.5178979259768255 13.0910606811999308
 -3.7394639904109219  8.6529709735489533 13.0859050801676062
  3.3849631434681551  2.3981978405245865 13.0927716371388421
  1.6093187202839723  5.5160697889308086 13.0862199122987306
 -0.1735348669990368  8.6464958474196028 13.0846861467009408
  6.9448344247462526  2.4030323947493155 13.0842049931220910
  5.1731502076744578  5.5188946143970172 13.0965823094440790
  3.3977645745066067  8.6377147907921614 13.0813094709138706
  1.1842140069959606  2.0488702837465693 20.1328136621056188
 -0.5859603187745485  5.1681308661458329 20.1319706213048022
 -2.3641280808663550  8.2927612193027649 20.1315542402689296
  4.7623139648007555  2.0497441591301371 20.1375814976010048
  2.9763449516819986  5.1684779546275665 20.1310352062082352
  1.2106136310564475  8.2923756430879560 20.1345803281067077
  8.3273308948775782  2.0503694219027624 20.1372872690394615
  6.5489346270786726  5.1702616170422004 20.1339723955541778
  4.7813989571082756  8.2926867227092593 20.1364776122027109
 -0.1693191215980832  0.2740736792432784 11.3014087045627942
 -1.9484481138693048  3.3974955626472569 11.2954958871017173
 -3.7205766129491593  6.5181803720064551 11.2974518137835656
  3.4057669073631742  0.2760305893184154 11.2939822111321924
  1.6284513712570809  3.3904578674288497 11.2985543504292707
 -0.1436931108756191  6.5175580703252392 11.2999405650942428
  6.9704579144777821  0.2712402022975755 11.2976388596170505
  5.2006631387702837  3.3961061082144264 11.2951651026813966
  3.4302243957131147  6.5145971266348814 11.2997395019470925
 -0.5636837997418098  3.0434427084094637 18.3520189299593106
 -2.3427634918121814  6.1687099942714614 18.3440442725148500
 -4.1114226905166120  9.2943330220343476 18.3419793150379071
  3.0006281888589097  3.0456088696722623 18.3475991774955887
  1.2325347409633369  6.1701229088136946 18.3493357083849418
 -0.5494313004965513  9.2849251556008845 18.3500056957019240
  6.5722092358776365  3.0467167626064522 18.3443042786754731
  4.7990709726291056  6.1701530704759140 18.3434449340336414
  3.0268036911618235  9.2908238045472142 18.3453679465958039
