Te Mo 
 1.0000000000000000
    10.4042803203003817    0.0000000000000000    0.0000000000000000
    -4.9259283841508843    8.9952926698011577    0.0000000000000000
     0.4839411252485717   -0.4937253115415847   29.7420758477677758
 Te  Mo 
  36  18
Cartesian
  2.0947611948612610  0.6670265804410095 20.3103652123652125
  0.4464251820456610  3.6629614379078479 20.3121300628467516
 -1.1872962547369048  6.6635938306032267 20.3084480748490392
  5.5663440200272047  0.6616129656584069 20.3124939089208105
  3.9203943978809765  3.6593965857416961 20.3035574421842604
  2.2813004362475224  6.6561754211597428 20.3052888049611333
  9.0382068084080931  0.6568870241081231 20.3117368243003611
  7.3895706278167790  3.6609245758777256 20.3072872695898070
  5.7536493851997212  6.6547787219474257 20.3039854661494310
  1.3673466217602843 -0.2142774475730883 13.0307242971349293
 -0.2765455682231442  2.7825188241110252 13.0284884375454197
 -1.9224455680495307  5.7761282880661815 13.0277986505774130
  4.8363027739657651 -0.2141922173076013 13.0344085209899934
  3.1938200292254741  2.7794006571823684 13.0263222140874397
  1.5509657892046016  5.7825021387960529 13.0268962578849230
  8.3038189962789470 -0.2171267289299665 13.0287714917162685
  6.6674911085424844  2.7830023765842187 13.0356119252971219
  5.0176951541281394  5.7831653465339841 13.0264552209272200
  2.0392288972160184  0.7247223268338262 16.7082392191707605
  0.3958167580395185  3.7193347311531606 16.7094920724246379
 -1.2530491539363180  6.7156160262424187 16.7156259271352958
  5.5047026111229895  0.7278840774274764 16.7060416429826475
  3.8718410162529002  3.7195043909671899 16.7128940781542283
  2.2170176763185689  6.7179844651359453 16.7101495769419159
  8.9760217934129649  0.7209688636302343 16.7103261869575448
  7.3357923040772137  3.7147363677474248 16.7130288653034853
  5.6866357099699707  6.7152288001546454 16.7129149126655605
  1.3091727911545550 -0.1571158669241545  9.4345807195981557
 -0.3284616805372751  2.8416315908307190  9.4336652458091734
 -1.9744908223462960  5.8402831360783107  9.4347225651888085
  4.7711186865947850 -0.1574377913744157  9.4370554741083517
  3.1378260589779798  2.8406069917471521  9.4258301278083803
  1.4866515459382366  5.8385191880249190  9.4344617611831865
  8.2469392582056855 -0.1594502504233268  9.4322365228916940
  6.6054160037137617  2.8346671521187408  9.4405080468267428
  4.9603623855288301  5.8399019405615586  9.4339967754589402
  0.2995389947644573 -0.3109188144330827 18.5078226582463188
 -1.3413395174433071  2.6912633991934469 18.5102904396177017
 -2.9816238945121540  5.6890467478029549 18.5164317719043510
  3.7650289935550054 -0.3065557072029265 18.5159084867094386
  2.1227470227806520  2.6966345214083933 18.5169037155451583
  0.4863584689085573  5.6896820294185009 18.5101830754822601
  7.2334779184886475 -0.3055291858623508 18.5080223088984575
  5.5882651276083539  2.6901589593508115 18.5054740161233724
  3.9537185015113563  5.6911057122896676 18.5055143468725092
  1.4023794389447795  1.8130798479786570 11.2349496707346219
 -0.2442898747402182  4.8055318525651520 11.2261462447959151
 -1.8828354428578937  7.8036832979148807 11.2274182299449006
  4.8683935102125657  1.8120659818470739 11.2317195572578008
  3.2268022486611403  4.8080485408180982 11.2291019896038478
  1.5845829634897055  7.8095339356874618 11.2321870780847703
  8.3350614294233427  1.8112705339366666 11.2334730966877014
  6.6972103806150569  4.8115133705391191 11.2387914108033460
  5.0532607508398470  7.8089863444422294 11.2349318695271414
