Te Mo 
 1.0000000000000000
    10.6826739472862577    0.0000000000000000    0.0000000000000000
    -5.1578446766909902    9.2603114270703415    0.0000000000000000
    -0.0115095043336579   -0.0520709163217342   29.8284867948224388
 Te  Mo 
  36  18
Cartesian
  1.7978300802765181  0.9876022275334693 20.2087807911093371
  0.0737162613771764  4.0804885759096408 20.2072192627202867
 -1.6485874205310425  7.1695185436940276 20.2002463648947170
  5.3537798641122976  0.9974890395553251 20.2151611317253348
  3.6310705320946211  4.0785007215135076 20.2098988297966073
  1.9149752846324368  7.1670625300136841 20.2072294404119006
  8.9129636237875403  0.9954692130085268 20.2092271410126827
  7.2009417705596572  4.0852035778601063 20.2008080652183217
  5.4772900786514178  7.1684214199622929 20.2065076188889847
 -0.0055614947022157 -0.0231731655444065 13.2247255768092415
 -1.7266691144141602  3.0638773463235864 13.2288522519402552
 -3.4466814894460147  6.1506998148497933 13.2210206520728182
  3.5636152815070359 -0.0201180582807702 13.2300149755766778
  1.8360270178498102  3.0646434399311611 13.2236488069425171
  0.1139074518889882  6.1520875105992365 13.2214075040225136
  7.1155089453963605 -0.0240790536530772 13.2277225456001286
  5.3975143130330618  3.0630427067300450 13.2252712404924360
  3.6771433623170933  6.1471810673271454 13.2205087008169375
  1.7972651639622683  1.0000858263833876 16.5949163433542815
  0.0753750508470530  4.0866409807238755 16.6025736289792540
 -1.6441687947664394  7.1737528652124247 16.6021596844716264
  5.3493359361464741  1.0051265742017415 16.5974256180390007
  3.6427592583219788  4.0841023360367421 16.6021695505716380
  1.9230667736797229  7.1747762774829527 16.6062236620983548
  8.9185142827858837  1.0058543754371589 16.6087669450419178
  7.1985081038037393  4.0869790380079083 16.6029056246120206
  5.4771441771487304  7.1660821628476468 16.6043457605525973
 -0.0038650043370146 -0.0179018459340608  9.6226940310324665
 -1.7219750700548280  3.0740432918890961  9.6182297226578140
 -3.4447541672774755  6.1572583083509596  9.6215945681615214
  3.5503825649907759 -0.0160500779455109  9.6136946485245645
  1.8372568381631305  3.0696983506702145  9.6215736803353753
  0.1231712014067956  6.1523435337000363  9.6266205479708251
  7.1179243810313215 -0.0169379808201318  9.6207452500514030
  5.3953181595784514  3.0690770111388388  9.6149042502902464
  3.6778294056208898  6.1592947718151398  9.6202706695858229
 -0.0032427942855805 -0.0326688758366388 18.4065887779489721
 -1.7206460550424605  3.0543447478118027 18.4010556018554610
 -3.4434815851809897  6.1371580769237379 18.4120997807928255
  3.5533279698013414 -0.0333614618766121 18.4047609210610013
  1.8349278614562987  3.0571823152862887 18.4072586483962723
  0.1125861493596052  6.1413677284866912 18.4024901909181366
  7.1131424342412428 -0.0361973640955397 18.4077443625407717
  5.3954914391431705  3.0490440308028801 18.4116547406751287
  3.6708357710680950  6.1448594979074791 18.4095418640094088
  0.0424325096098359  2.0450922318439750 11.4267394711675365
 -1.6820366446862005  5.1231866118224065 11.4200831484853076
 -3.4021723985964214  8.2113741265303872 11.4243450577027286
  3.5965694475498595  2.0376449458716799 11.4246688487774097
  1.8774055328858810  5.1244014878135093 11.4247659582782557
  0.1586215043673365  8.2125422627026197 11.4254613573307324
  7.1603040343313271  2.0369705680233654 11.4256126641403650
  5.4387062292983828  5.1246570706440124 11.4243719016883762
  3.7228312387101652  8.2044234310616471 11.4265876633556225
