Te Mo 
 1.0000000000000000
    10.4176268084456520    0.0000000000000000    0.0000000000000000
    -5.4402777645373837    9.1910213370038960    0.0000000000000000
     0.5345387911790045    0.7746010236217091   30.2992653272109820
 Te  Mo 
  36  18
Cartesian
  0.1195224755777890  2.2888981005602433  9.5667172770167639
 -1.6899511212107494  5.3449500207620746  9.5696749023470975
 -3.5103636036671948  8.4128676043678059  9.5695187396363242
  3.5890001073791580  2.2897814555056435  9.5638946734090595
  1.7719251361989099  5.3463884098313130  9.5621466653714808
 -0.0345211417707932  8.4155320904062094  9.5649608478090276
  7.0647524792519727  2.2835510315334870  9.5710932953198835
  5.2469507751460682  5.3498800363066650  9.5710919357589201
  3.4350785425639261  8.4143074834508109  9.5664399509265579
 -0.6029855346965375  1.9677916676470184 17.0617171965645511
 -2.4169690236680199  5.0255138657147667 17.0625729936682866
 -4.2377813003794360  8.0963194523441651 17.0588367670050509
  2.8600204054028016  1.9653132809950744 17.0708839135068828
  1.0541452673481140  5.0309149683602481 17.0670957454221792
 -0.7547242571709831  8.0975386988641773 17.0666128760478131
  6.3353176808290508  1.9755174237531490 17.0647805326288946
  4.5295999118452581  5.0298171940681327 17.0710228841696008
  2.7150563172055189  8.0953918824763438 17.0634050660605219
  0.1864321519048054  2.3756079756127684 13.2393457742247875
 -1.6314349006455833  5.4460487570832470 13.2300002042007261
 -3.4471098658665467  8.5120767843853624 13.2347526519125775
  3.6512921727285530  2.3855920393255472 13.2269745968272368
  1.8402242460719835  5.4453710034375886 13.2317798619606997
  0.0260261091092994  8.5076493125818775 13.2282974278198164
  7.1239923350846661  2.3794232108010607 13.2314751266043107
  5.3124327429409828  5.4447132468799602 13.2324756809610751
  3.4990981677140174  8.5084091703947156 13.2229981717980838
 -0.5411199249748108  2.0620412210698773 20.7300425977874561
 -2.3600000132071814  5.1305808250083711 20.7341531102174095
 -4.1696962095193886  8.1899194115523226 20.7317245467605531
  2.9353515289190866  2.0677428600175327 20.7327705425508633
  1.1258585491449882  5.1230810541816734 20.7278634572151894
 -0.6968022178528636  8.1883115766102783 20.7299723433575380
  6.4059028957759612  2.0649413722011265 20.7276969444078496
  4.5947417100937749  5.1242968981590078 20.7282269308221494
  2.7717054606630986  8.1845488287012476 20.7294890525725535
  0.2001642822138640  0.2891893885388642 11.3997824357614714
 -1.6096996190624659  3.3558899025072333 11.3935122233447004
 -3.4328409915687450  6.4132371556072849 11.3980139470981499
  3.6770680837350351  0.2950025831124803 11.3949132959438604
  1.8620813055190122  3.3567018008532230 11.4025063630646226
  0.0473368865287453  6.4182954800957903 11.4004578594637156
  7.1407099613876603  0.2859528658322089 11.3970768289523843
  5.3307365064509993  3.3561053620086287 11.4002239571982962
  3.5163418450906399  6.4174953434490911 11.3985285276759924
  1.1326828496835999  3.0296247101498719 18.8974306894554438
 -0.6697867550578170  6.0975317262511863 18.8926237917317899
 -2.4928228846162934  9.1637556188046023 18.9040824276381905
  4.6089863400051723  3.0366026309747549 18.8984567514223372
  2.7947472658512598  6.1002137414626540 18.8950397695146286
  0.9812520595191373  9.1616177701649946 18.8982623125650768
  8.0841761722862859  3.0311044845909993 18.9006444401337603
  6.2608607838540715  6.0990905321592823 18.9041383128222762
  4.4557824992326482  9.1632383065718770 18.8997164549398704
