Te Mo 
 1.0000000000000000
    10.4067171439486401    0.0000000000000000    0.0000000000000000
    -5.3724460142826347    9.3758215622732521    0.0000000000000000
    -0.1683173987181189   -0.5297948937717821   29.5870056241681851
 Te  Mo 
  36  18
Cartesian
 -0.0895123589292714  1.9130537941437828  9.4930922568933855
 -1.8791699613750807  5.0412593708832940  9.4852257516869987
 -3.6766107604243099  8.1725161115372824  9.4905115729070602
  3.3730132290557298  1.9132313721318386  9.4868709354429619
  1.5846310321452970  5.0405844071767927  9.4923886093453724
 -0.2044949790329777  8.1639897725231378  9.4872810581916376
  6.8461310378512481  1.9128437180456153  9.4864153690962247
  5.0519729922115868  5.0414711794384583  9.4908713658577941
  3.2633890122708853  8.1646035954421379  9.4864176266919422
 -0.3889723493553924  0.2193369816823758 16.5261570121302981
 -2.1882637402001763  3.3522912588012277 16.5168500252260877
 -3.9654754139948425  6.4718552842230697 16.5267154028011802
  3.0795946229124036  0.2276326498911078 16.5236271870480493
  1.2820717829920072  3.3486664054497317 16.5225292748951418
 -0.5046859390631272  6.4822806976102987 16.5251689474567947
  6.5454581130304907  0.2250360705440800 16.5237167422042255
  4.7595946672060512  3.3438535873594177 16.5189747741626718
  2.9627335346520676  6.4732079004892427 16.5304310157761236
 -0.1184115331810502  1.8454637118934758 13.0637746309382390
 -1.8949729788229379  4.9723004850624521 13.0639574542302501
 -3.6902007708519804  8.0983028168842495 13.0672988169535067
  3.3588035526225295  1.8529712484678698 13.0721472519878343
  1.5686661566051165  4.9784824145436364 13.0635693544270293
 -0.2263329875174928  8.0952709365642477 13.0615060267069243
  6.8245848908006197  1.8405452276414271 13.0614018622701380
  5.0306273460921282  4.9687144499491955 13.0610948661899844
  3.2399557551189657  8.1037753621533763 13.0710617399140556
 -0.4143834066291708  0.1596622455235376 20.0984516206674257
 -2.2034417433940017  3.2861221034713526 20.0996637379695926
 -3.9947450174481012  6.4108859504306555 20.0997265895528230
  3.0542769572281476  0.1625699956359429 20.1019691904095161
  1.2644581860929216  3.2866405136568688 20.1000543258586148
 -0.5250483487961175  6.4097881955122178 20.0979194938319807
  6.5238006148703782  0.1667544219606676 20.0947036232776988
  4.7355725247309808  3.2862359907056202 20.0962091015761679
  2.9421610639608047  6.4120737277619977 20.0996115867420535
 -0.0596224869748641 -0.1960010739476455 11.2710064460469113
 -1.8478941794377497  2.9291563857718068 11.2744849399619067
 -3.6474631619893545  6.0519564413348563 11.2737670571597182
  3.4040005316088786 -0.2004865234720974 11.2768440042158336
  1.6144561134136082  2.9225429791664856 11.2744454056514218
 -0.1814900569130395  6.0541519347803678 11.2702904775884445
  6.8789691227428706 -0.2068729719441469 11.2800209840104326
  5.0852059334930590  2.9231284008107390 11.2795184977270022
  3.2920539019833828  6.0534649838832921 11.2691964131512599
  1.3129224281084839  1.2361879933407036 18.3145782609496557
 -0.4753820031330467  4.3592956211748675 18.3128959109703437
 -2.2658760275482321  7.4852771140725860 18.3111352774250378
  4.7820820889007969  1.2360833217992964 18.3112786591240599
  2.9893311219060537  4.3680412213061084 18.3120204266233451
  1.1934007877381405  7.4846619570387682 18.3171356903010398
  8.2576402731358947  1.2325517307429283 18.3136354003804627
  6.4612833142379076  4.3603285784394625 18.3125255805010170
  4.6726727299344768  7.4861352592381838 18.3105658188787785
