Te Mo 
 1.0000000000000000
    10.4073146831889538    0.0000000000000000    0.0000000000000000
    -5.2876278963080781    9.2303148010285732    0.0000000000000000
     0.1986356892431318   -0.5605357288507580   29.8773819032868531
 Te  Mo 
  36  18
Cartesian
  0.0391419258805345  1.8779727959399486  9.3482617026626293
 -1.7167724283401555  4.9465737712362463  9.3403823940575172
 -3.4880011008431402  8.0332899576611609  9.3513861144469050
  3.5157214748703978  1.8781817051210177  9.3501474721632860
  1.7495637817414607  4.9521982848361752  9.3444662047276204
 -0.0104104372270856  8.0300269764442600  9.3464415668413103
  6.9800638966270530  1.8746444885918641  9.3459664605024084
  5.2159570067215490  4.9499269914024024  9.3405903374638282
  3.4531619701876624  8.0316499501499159  9.3489495062399950
 -0.1936798288774641  2.2464964295154815 16.9172724123649125
 -1.9641898895118104  5.3226937089220350 16.9237956746510037
 -3.7228021313739599  8.4049760333141883 16.9216694135770993
  3.2673992005754386  2.2496871490400818 16.9234655734279542
  1.5096825154050533  5.3260472970643544 16.9145649501322914
 -0.2551234752467811  8.3987375069695478 16.9211073848150235
  6.7365044036253696  2.2468643714240506 16.9210253886752859
  4.9730032254981431  5.3234819495013594 16.9237999792249028
  3.2197694955062421  8.4062296957955791 16.9189291864429201
  0.0688672025822335  1.8109999523252840 12.9546156621631017
 -1.6957209139433940  4.8765719905973537 12.9534658001021086
 -3.4501736107060883  7.9665514038567915 12.9544056995727850
  3.5317766361344614  1.8126908289703214 12.9510097131476023
  1.7713975486426596  4.8875656241182801 12.9588330476771763
  0.0113783303484634  7.9616516029298934 12.9627305575058127
  7.0096552598672446  1.8086031384890222 12.9590858795743671
  5.2436687589735147  4.8805451776693820 12.9604995326255565
  3.4817340197240880  7.9575240386375681 12.9539080220777834
 -0.1757822668637481  2.1802290334412979 20.5320711985862125
 -1.9385695500841120  5.2557334488342446 20.5323832486491789
 -3.7014318041691183  8.3323059724407287 20.5316644694888524
  3.2938333529569426  2.1778503159346014 20.5383721680788440
  1.5299848024551865  5.2554875717091383 20.5314461879559786
 -0.2317440322564703  8.3314450855297970 20.5338768824552922
  6.7608486103561347  2.1772708144474064 20.5305747207903977
  5.0009532032093444  5.2527388546513523 20.5302987312347298
  3.2366716954304491  8.3308509995925029 20.5322257927264644
  0.0791886455851984 -0.2086143281995491 11.1537131091551878
 -1.6846635654401063  2.8643356801026925 11.1479147708860431
 -3.4586537951650840  5.9465235943295909 11.1449273759826699
  3.5429497726270984 -0.2113427893862738 11.1502276784975169
  1.7787795612082626  2.8647970699731280 11.1487878942147081
  0.0173834012188528  5.9437883949773598 11.1515134213032052
  7.0121518990843130 -0.2148647060131881 11.1526516438139573
  5.2586357280598648  2.8672207255184223 11.1499016863482598
  3.4867652182011892  5.9447311103486467 11.1511304753141669
 -0.1706072996523864  0.1690759717679133 18.7228645517035162
 -1.9267005900213894  3.2438819868275224 18.7271262528720364
 -3.6999917730081466  6.3232042180054222 18.7260290910417524
  3.2988281039566485  0.1612493191375107 18.7270230014462626
  1.5411172509080029  3.2370322731425722 18.7181178372718406
 -0.2308211484934196  6.3182792392143368 18.7307038949046394
  6.7706110279270630  0.1607488835625662 18.7278961559169872
  5.0052358853830876  3.2374681292327656 18.7284582492077618
  3.2429122951247882  6.3112233871421370 18.7295878405279979
