Te Mo 
 1.0000000000000000
    10.6137728345029654    0.0000000000000000    0.0000000000000000
    -5.1196102478399563    9.1319818948352847    0.0000000000000000
    -0.3246018492913160    0.3981825272343233   29.5516828819343864
 Te  Mo 
  36  18
Cartesian
  1.5654421053362357  1.2855570528482991 20.1753008909031273
 -0.1401690031236535  4.3338928103879359 20.1815063898126610
 -1.8488222124828644  7.3657483657212062 20.1790035351164683
  5.1022788817724187  1.2840932623194112 20.1806279166317850
  3.3995909710731418  4.3316228093185289 20.1779649010780204
  1.6923419915802203  7.3765731266815076 20.1757040766516162
  8.6413972698717156  1.2865430094887842 20.1735672217168762
  6.9323457242799078  4.3332836383738220 20.1828293071424092
  5.2347279028997402  7.3697563647745454 20.1748562870571249
  2.2161636083820895  0.1754189348687448 12.9481012013736194
  0.5090517571856897  3.2182017165779819 12.9467962733327706
 -1.1966926136192588  6.2621937052028649 12.9470691446288182
  5.7597307671308169  0.1748371623125309 12.9455205320102440
  4.0477041785889067  3.2224360082389465 12.9498626018887695
  2.3421506733278545  6.2633119306110379 12.9487066937214284
  9.2934139663768178  0.1754166079037321 12.9435587213466103
  7.5928277328940288  3.2130829484890047 12.9497232241835256
  5.8815509679736948  6.2618134639590046 12.9483878788308093
  1.6071027896894010  1.2402134849414079 16.5989596598709070
 -0.0985603507613082  4.2838645189313143 16.6033920129620753
 -1.8076370977301155  7.3226777772456400 16.6078109905868310
  5.1466184804631050  1.2348117558321796 16.6032970334163998
  3.4401301947094014  4.2769880895696897 16.6059908523429876
  1.7264329270822603  7.3325319312928512 16.6022956162399744
  8.6775655011460753  1.2389364041851005 16.5981453219364141
  6.9725305574641618  4.2842423605169104 16.6056864849925852
  5.2686755849752451  7.3310417980795091 16.6016353685152254
  2.2562604755292366  0.1179552781961160  9.3778453698195285
  0.5474087956313252  3.1651759548293517  9.3688222375896864
 -1.1554496606422366  6.2071908603407948  9.3704636183222672
  5.7918253127195669  0.1232660851568702  9.3741398513490228
  4.0916259129515202  3.1636509013758567  9.3778586214462081
  2.3843760447443922  6.2193375538877262  9.3762249815458762
  9.3344069810161212  0.1330623327129941  9.3804017390803462
  7.6271208419882353  3.1745985630368097  9.3685991648811058
  5.9188539785647656  6.2141607637701428  9.3734181451138472
 -0.2082137474665061  0.2490092727026532 18.3892280269399677
 -1.9020023849625378  3.2935188784493623 18.3893699350308886
 -3.6190791942996645  6.3344674001344332 18.3964991108656939
  3.3268019826463355  0.2482602235991956 18.3933294175499249
  1.6295809923232625  3.2917375253018131 18.3914204186804682
 -0.0771060299351095  6.3346435842681066 18.3905774826738551
  6.8725773766459861  0.2444867911955135 18.3989612994187759
  5.1647885692322761  3.2985131298976751 18.3972816202095579
  3.4644823184227951  6.3389296717414441 18.3934376455092909
 -1.2590821061835296  2.1789407182724982 11.1590113033674463
 -2.9685659276845318  5.2217610565036097 11.1638575138185256
 -4.6714212726520099  8.2622771777309474 11.1531147145341798
  2.2801146237335677  2.1758737337500063 11.1605521838637713
  0.5696745714467759  5.2269658390216698 11.1591019996485485
 -1.1336865791751281  8.2626791864282225 11.1599005031894762
  5.8216580939783826  2.1771879329792014 11.1530391128672424
  4.1087068816413401  5.2208011550935334 11.1598891302828616
  2.3986186238940488  8.2646673348912341 11.1627385324439530
