Te Mo 
 1.0000000000000000
    10.5829422241377014    0.0000000000000000    0.0000000000000000
    -5.1262290370642720    9.2316342690242355    0.0000000000000000
    -0.3329309897465497   -0.1122745181215002   29.8429948829672433
 Te  Mo 
  36  18
Cartesian
 -0.0716215143695146  2.0199499383954729  9.3324711946449455
 -1.7734010424694762  5.0956808874858268  9.3332646428707111
 -3.4840391439749587  8.1621353640083747  9.3299874897806188
  3.4585743177881789  2.0181395791675021  9.3314705733285503
  1.7482237725471552  5.0933957322387959  9.3290102276396532
  0.0424300058432818  8.1725444756797820  9.3318952375115458
  6.9894233742034784  2.0137082335781411  9.3352889281400788
  5.2766773358998469  5.0921180543644819  9.3375333292313449
  3.5652370071650146  8.1666225078432397  9.3267294232357365
 -0.4286741439184685  2.5011647799182928 16.8947538631565415
 -2.1507004097767997  5.5801441902611701 16.9071209869082857
 -3.8592270984258987  8.6493902752603109 16.8971339927772277
  3.0915319857650903  2.4997616143644366 16.9012602175922488
  1.3829659106896763  5.5774619092239641 16.9008317934354366
 -0.3231012844598537  8.6542917428895709 16.9013928729253777
  6.6204457739755034  2.4985157722106766 16.9020077417904666
  4.9164419900637260  5.5752585397019470 16.8936227855138519
  3.2012899928995182  8.6552157031200867 16.9010920201434800
 -0.1045300853405305  2.0014243509694403 12.9442308135082325
 -1.8224990145350461  5.0834994590947451 12.9445064421876985
 -3.5245525648199050  8.1569195390661839 12.9403651707346263
  3.4200052510420433  2.0029057301049922 12.9424004674427913
  1.7098343222699766  5.0806550606776923 12.9365064591981174
  0.0000929821623560  8.1650372060781873 12.9478923499377352
  6.9458521038734826  2.0043728302624890 12.9413590156251406
  5.2427678665936650  5.0875143512843062 12.9431318888487663
  3.5271707488362019  8.1578820449463993 12.9394633159077976
 -0.4777499670200537  2.4866462069610664 20.5089192567840328
 -2.1874984596131521  5.5595656551902755 20.5145538605362709
 -3.8950518348825152  8.6496594618455678 20.5042621192968610
  3.0507612891793627  2.4872343995010824 20.5089198947148894
  1.3419896669075277  5.5631412900586614 20.5037798227040966
 -0.3702640172796927  8.6420567363963769 20.5030355922151095
  6.5777780272743502  2.4845895903402218 20.5103195350494900
  4.8738361192161275  5.5579774797580708 20.5064362939576945
  3.1631223280248251  8.6459446531022586 20.5156338522008852
 -0.1254243348094094 -0.0498850144718308 11.1352357546607781
 -1.8326178414870427  3.0337277204118824 11.1421375459082856
 -3.5447657687917173  6.1145634581455734 11.1407598274469120
  3.3979642895021329 -0.0380816449174162 11.1405455408655669
  1.6944675420985353  3.0375941673318798 11.1433539810593984
 -0.0145023629582655  6.1143129666154161 11.1455189648140305
  6.9294132475566181 -0.0346184063659143 11.1341016282270928
  5.2190101702382510  3.0388093175133246 11.1334816913905605
  3.5124612831536961  6.1123975461024775 11.1366409848528090
 -0.4964209361146142  0.4413677256008874 18.7087893104847396
 -2.2103008210990422  3.5160363190372865 18.7049184305425200
 -3.9084778233742496  6.5991295787507962 18.6999806214990549
  3.0292101999437007  0.4482500378265522 18.7016831502774821
  1.3251533100329103  3.5187545943197240 18.7055702340505796
 -0.3778569879554142  6.5976316826797001 18.7060771609218754
  6.5664482488399702  0.4420309149517482 18.7120877476485603
  4.8495946519012012  3.5125277948538742 18.7036091010584968
  3.1480805274830037  6.5986153270628698 18.7099595665321488
